c A=H* and C88
p cnf 1965 13198
1 2 3 4 5 0
-1 -2 0
-1 -3 0
-1 -4 0
-1 -5 0
-2 -3 0
-2 -4 0
-2 -5 0
-3 -4 0
-3 -5 0
-4 -5 0
6 7 8 9 10 0
-6 -7 0
-6 -8 0
-6 -9 0
-6 -10 0
-7 -8 0
-7 -9 0
-7 -10 0
-8 -9 0
-8 -10 0
-9 -10 0
11 12 13 14 15 0
-11 -12 0
-11 -13 0
-11 -14 0
-11 -15 0
-12 -13 0
-12 -14 0
-12 -15 0
-13 -14 0
-13 -15 0
-14 -15 0
16 17 18 19 20 0
-16 -17 0
-16 -18 0
-16 -19 0
-16 -20 0
-17 -18 0
-17 -19 0
-17 -20 0
-18 -19 0
-18 -20 0
-19 -20 0
21 22 23 24 25 0
-21 -22 0
-21 -23 0
-21 -24 0
-21 -25 0
-22 -23 0
-22 -24 0
-22 -25 0
-23 -24 0
-23 -25 0
-24 -25 0
26 27 28 29 30 0
-26 -27 0
-26 -28 0
-26 -29 0
-26 -30 0
-27 -28 0
-27 -29 0
-27 -30 0
-28 -29 0
-28 -30 0
-29 -30 0
31 32 33 34 35 0
-31 -32 0
-31 -33 0
-31 -34 0
-31 -35 0
-32 -33 0
-32 -34 0
-32 -35 0
-33 -34 0
-33 -35 0
-34 -35 0
36 37 38 39 40 0
-36 -37 0
-36 -38 0
-36 -39 0
-36 -40 0
-37 -38 0
-37 -39 0
-37 -40 0
-38 -39 0
-38 -40 0
-39 -40 0
41 42 43 44 45 0
-41 -42 0
-41 -43 0
-41 -44 0
-41 -45 0
-42 -43 0
-42 -44 0
-42 -45 0
-43 -44 0
-43 -45 0
-44 -45 0
46 47 48 49 50 0
-46 -47 0
-46 -48 0
-46 -49 0
-46 -50 0
-47 -48 0
-47 -49 0
-47 -50 0
-48 -49 0
-48 -50 0
-49 -50 0
51 52 53 54 55 0
-51 -52 0
-51 -53 0
-51 -54 0
-51 -55 0
-52 -53 0
-52 -54 0
-52 -55 0
-53 -54 0
-53 -55 0
-54 -55 0
56 57 58 59 60 0
-56 -57 0
-56 -58 0
-56 -59 0
-56 -60 0
-57 -58 0
-57 -59 0
-57 -60 0
-58 -59 0
-58 -60 0
-59 -60 0
61 62 63 64 65 0
-61 -62 0
-61 -63 0
-61 -64 0
-61 -65 0
-62 -63 0
-62 -64 0
-62 -65 0
-63 -64 0
-63 -65 0
-64 -65 0
66 67 68 69 70 0
-66 -67 0
-66 -68 0
-66 -69 0
-66 -70 0
-67 -68 0
-67 -69 0
-67 -70 0
-68 -69 0
-68 -70 0
-69 -70 0
71 72 73 74 75 0
-71 -72 0
-71 -73 0
-71 -74 0
-71 -75 0
-72 -73 0
-72 -74 0
-72 -75 0
-73 -74 0
-73 -75 0
-74 -75 0
76 77 78 79 80 0
-76 -77 0
-76 -78 0
-76 -79 0
-76 -80 0
-77 -78 0
-77 -79 0
-77 -80 0
-78 -79 0
-78 -80 0
-79 -80 0
81 82 83 84 85 0
-81 -82 0
-81 -83 0
-81 -84 0
-81 -85 0
-82 -83 0
-82 -84 0
-82 -85 0
-83 -84 0
-83 -85 0
-84 -85 0
86 87 88 89 90 0
-86 -87 0
-86 -88 0
-86 -89 0
-86 -90 0
-87 -88 0
-87 -89 0
-87 -90 0
-88 -89 0
-88 -90 0
-89 -90 0
91 92 93 94 95 0
-91 -92 0
-91 -93 0
-91 -94 0
-91 -95 0
-92 -93 0
-92 -94 0
-92 -95 0
-93 -94 0
-93 -95 0
-94 -95 0
96 97 98 99 100 0
-96 -97 0
-96 -98 0
-96 -99 0
-96 -100 0
-97 -98 0
-97 -99 0
-97 -100 0
-98 -99 0
-98 -100 0
-99 -100 0
101 102 103 104 105 0
-101 -102 0
-101 -103 0
-101 -104 0
-101 -105 0
-102 -103 0
-102 -104 0
-102 -105 0
-103 -104 0
-103 -105 0
-104 -105 0
106 107 108 109 110 0
-106 -107 0
-106 -108 0
-106 -109 0
-106 -110 0
-107 -108 0
-107 -109 0
-107 -110 0
-108 -109 0
-108 -110 0
-109 -110 0
111 112 113 114 115 0
-111 -112 0
-111 -113 0
-111 -114 0
-111 -115 0
-112 -113 0
-112 -114 0
-112 -115 0
-113 -114 0
-113 -115 0
-114 -115 0
116 117 118 119 120 0
-116 -117 0
-116 -118 0
-116 -119 0
-116 -120 0
-117 -118 0
-117 -119 0
-117 -120 0
-118 -119 0
-118 -120 0
-119 -120 0
121 122 123 124 125 0
-121 -122 0
-121 -123 0
-121 -124 0
-121 -125 0
-122 -123 0
-122 -124 0
-122 -125 0
-123 -124 0
-123 -125 0
-124 -125 0
126 127 128 129 130 0
-126 -127 0
-126 -128 0
-126 -129 0
-126 -130 0
-127 -128 0
-127 -129 0
-127 -130 0
-128 -129 0
-128 -130 0
-129 -130 0
131 132 133 134 135 0
-131 -132 0
-131 -133 0
-131 -134 0
-131 -135 0
-132 -133 0
-132 -134 0
-132 -135 0
-133 -134 0
-133 -135 0
-134 -135 0
136 137 138 139 140 0
-136 -137 0
-136 -138 0
-136 -139 0
-136 -140 0
-137 -138 0
-137 -139 0
-137 -140 0
-138 -139 0
-138 -140 0
-139 -140 0
141 142 143 144 145 0
-141 -142 0
-141 -143 0
-141 -144 0
-141 -145 0
-142 -143 0
-142 -144 0
-142 -145 0
-143 -144 0
-143 -145 0
-144 -145 0
146 147 148 149 150 0
-146 -147 0
-146 -148 0
-146 -149 0
-146 -150 0
-147 -148 0
-147 -149 0
-147 -150 0
-148 -149 0
-148 -150 0
-149 -150 0
151 152 153 154 155 0
-151 -152 0
-151 -153 0
-151 -154 0
-151 -155 0
-152 -153 0
-152 -154 0
-152 -155 0
-153 -154 0
-153 -155 0
-154 -155 0
156 157 158 159 160 0
-156 -157 0
-156 -158 0
-156 -159 0
-156 -160 0
-157 -158 0
-157 -159 0
-157 -160 0
-158 -159 0
-158 -160 0
-159 -160 0
161 162 163 164 165 0
-161 -162 0
-161 -163 0
-161 -164 0
-161 -165 0
-162 -163 0
-162 -164 0
-162 -165 0
-163 -164 0
-163 -165 0
-164 -165 0
166 167 168 169 170 0
-166 -167 0
-166 -168 0
-166 -169 0
-166 -170 0
-167 -168 0
-167 -169 0
-167 -170 0
-168 -169 0
-168 -170 0
-169 -170 0
171 172 173 174 175 0
-171 -172 0
-171 -173 0
-171 -174 0
-171 -175 0
-172 -173 0
-172 -174 0
-172 -175 0
-173 -174 0
-173 -175 0
-174 -175 0
176 177 178 179 180 0
-176 -177 0
-176 -178 0
-176 -179 0
-176 -180 0
-177 -178 0
-177 -179 0
-177 -180 0
-178 -179 0
-178 -180 0
-179 -180 0
181 182 183 184 185 0
-181 -182 0
-181 -183 0
-181 -184 0
-181 -185 0
-182 -183 0
-182 -184 0
-182 -185 0
-183 -184 0
-183 -185 0
-184 -185 0
186 187 188 189 190 0
-186 -187 0
-186 -188 0
-186 -189 0
-186 -190 0
-187 -188 0
-187 -189 0
-187 -190 0
-188 -189 0
-188 -190 0
-189 -190 0
191 192 193 194 195 0
-191 -192 0
-191 -193 0
-191 -194 0
-191 -195 0
-192 -193 0
-192 -194 0
-192 -195 0
-193 -194 0
-193 -195 0
-194 -195 0
196 197 198 199 200 0
-196 -197 0
-196 -198 0
-196 -199 0
-196 -200 0
-197 -198 0
-197 -199 0
-197 -200 0
-198 -199 0
-198 -200 0
-199 -200 0
201 202 203 204 205 0
-201 -202 0
-201 -203 0
-201 -204 0
-201 -205 0
-202 -203 0
-202 -204 0
-202 -205 0
-203 -204 0
-203 -205 0
-204 -205 0
206 207 208 209 210 0
-206 -207 0
-206 -208 0
-206 -209 0
-206 -210 0
-207 -208 0
-207 -209 0
-207 -210 0
-208 -209 0
-208 -210 0
-209 -210 0
211 212 213 214 215 0
-211 -212 0
-211 -213 0
-211 -214 0
-211 -215 0
-212 -213 0
-212 -214 0
-212 -215 0
-213 -214 0
-213 -215 0
-214 -215 0
216 217 218 219 220 0
-216 -217 0
-216 -218 0
-216 -219 0
-216 -220 0
-217 -218 0
-217 -219 0
-217 -220 0
-218 -219 0
-218 -220 0
-219 -220 0
221 222 223 224 225 0
-221 -222 0
-221 -223 0
-221 -224 0
-221 -225 0
-222 -223 0
-222 -224 0
-222 -225 0
-223 -224 0
-223 -225 0
-224 -225 0
226 227 228 229 230 0
-226 -227 0
-226 -228 0
-226 -229 0
-226 -230 0
-227 -228 0
-227 -229 0
-227 -230 0
-228 -229 0
-228 -230 0
-229 -230 0
231 232 233 234 235 0
-231 -232 0
-231 -233 0
-231 -234 0
-231 -235 0
-232 -233 0
-232 -234 0
-232 -235 0
-233 -234 0
-233 -235 0
-234 -235 0
236 237 238 239 240 0
-236 -237 0
-236 -238 0
-236 -239 0
-236 -240 0
-237 -238 0
-237 -239 0
-237 -240 0
-238 -239 0
-238 -240 0
-239 -240 0
241 242 243 244 245 0
-241 -242 0
-241 -243 0
-241 -244 0
-241 -245 0
-242 -243 0
-242 -244 0
-242 -245 0
-243 -244 0
-243 -245 0
-244 -245 0
246 247 248 249 250 0
-246 -247 0
-246 -248 0
-246 -249 0
-246 -250 0
-247 -248 0
-247 -249 0
-247 -250 0
-248 -249 0
-248 -250 0
-249 -250 0
251 252 253 254 255 0
-251 -252 0
-251 -253 0
-251 -254 0
-251 -255 0
-252 -253 0
-252 -254 0
-252 -255 0
-253 -254 0
-253 -255 0
-254 -255 0
256 257 258 259 260 0
-256 -257 0
-256 -258 0
-256 -259 0
-256 -260 0
-257 -258 0
-257 -259 0
-257 -260 0
-258 -259 0
-258 -260 0
-259 -260 0
261 262 263 264 265 0
-261 -262 0
-261 -263 0
-261 -264 0
-261 -265 0
-262 -263 0
-262 -264 0
-262 -265 0
-263 -264 0
-263 -265 0
-264 -265 0
266 267 268 269 270 0
-266 -267 0
-266 -268 0
-266 -269 0
-266 -270 0
-267 -268 0
-267 -269 0
-267 -270 0
-268 -269 0
-268 -270 0
-269 -270 0
271 272 273 274 275 0
-271 -272 0
-271 -273 0
-271 -274 0
-271 -275 0
-272 -273 0
-272 -274 0
-272 -275 0
-273 -274 0
-273 -275 0
-274 -275 0
276 277 278 279 280 0
-276 -277 0
-276 -278 0
-276 -279 0
-276 -280 0
-277 -278 0
-277 -279 0
-277 -280 0
-278 -279 0
-278 -280 0
-279 -280 0
281 282 283 284 285 0
-281 -282 0
-281 -283 0
-281 -284 0
-281 -285 0
-282 -283 0
-282 -284 0
-282 -285 0
-283 -284 0
-283 -285 0
-284 -285 0
286 287 288 289 290 0
-286 -287 0
-286 -288 0
-286 -289 0
-286 -290 0
-287 -288 0
-287 -289 0
-287 -290 0
-288 -289 0
-288 -290 0
-289 -290 0
291 292 293 294 295 0
-291 -292 0
-291 -293 0
-291 -294 0
-291 -295 0
-292 -293 0
-292 -294 0
-292 -295 0
-293 -294 0
-293 -295 0
-294 -295 0
296 297 298 299 300 0
-296 -297 0
-296 -298 0
-296 -299 0
-296 -300 0
-297 -298 0
-297 -299 0
-297 -300 0
-298 -299 0
-298 -300 0
-299 -300 0
301 302 303 304 305 0
-301 -302 0
-301 -303 0
-301 -304 0
-301 -305 0
-302 -303 0
-302 -304 0
-302 -305 0
-303 -304 0
-303 -305 0
-304 -305 0
306 307 308 309 310 0
-306 -307 0
-306 -308 0
-306 -309 0
-306 -310 0
-307 -308 0
-307 -309 0
-307 -310 0
-308 -309 0
-308 -310 0
-309 -310 0
311 312 313 314 315 0
-311 -312 0
-311 -313 0
-311 -314 0
-311 -315 0
-312 -313 0
-312 -314 0
-312 -315 0
-313 -314 0
-313 -315 0
-314 -315 0
316 317 318 319 320 0
-316 -317 0
-316 -318 0
-316 -319 0
-316 -320 0
-317 -318 0
-317 -319 0
-317 -320 0
-318 -319 0
-318 -320 0
-319 -320 0
321 322 323 324 325 0
-321 -322 0
-321 -323 0
-321 -324 0
-321 -325 0
-322 -323 0
-322 -324 0
-322 -325 0
-323 -324 0
-323 -325 0
-324 -325 0
326 327 328 329 330 0
-326 -327 0
-326 -328 0
-326 -329 0
-326 -330 0
-327 -328 0
-327 -329 0
-327 -330 0
-328 -329 0
-328 -330 0
-329 -330 0
331 332 333 334 335 0
-331 -332 0
-331 -333 0
-331 -334 0
-331 -335 0
-332 -333 0
-332 -334 0
-332 -335 0
-333 -334 0
-333 -335 0
-334 -335 0
336 337 338 339 340 0
-336 -337 0
-336 -338 0
-336 -339 0
-336 -340 0
-337 -338 0
-337 -339 0
-337 -340 0
-338 -339 0
-338 -340 0
-339 -340 0
341 342 343 344 345 0
-341 -342 0
-341 -343 0
-341 -344 0
-341 -345 0
-342 -343 0
-342 -344 0
-342 -345 0
-343 -344 0
-343 -345 0
-344 -345 0
346 347 348 349 350 0
-346 -347 0
-346 -348 0
-346 -349 0
-346 -350 0
-347 -348 0
-347 -349 0
-347 -350 0
-348 -349 0
-348 -350 0
-349 -350 0
351 352 353 354 355 0
-351 -352 0
-351 -353 0
-351 -354 0
-351 -355 0
-352 -353 0
-352 -354 0
-352 -355 0
-353 -354 0
-353 -355 0
-354 -355 0
356 357 358 359 360 0
-356 -357 0
-356 -358 0
-356 -359 0
-356 -360 0
-357 -358 0
-357 -359 0
-357 -360 0
-358 -359 0
-358 -360 0
-359 -360 0
361 362 363 364 365 0
-361 -362 0
-361 -363 0
-361 -364 0
-361 -365 0
-362 -363 0
-362 -364 0
-362 -365 0
-363 -364 0
-363 -365 0
-364 -365 0
366 367 368 369 370 0
-366 -367 0
-366 -368 0
-366 -369 0
-366 -370 0
-367 -368 0
-367 -369 0
-367 -370 0
-368 -369 0
-368 -370 0
-369 -370 0
371 372 373 374 375 0
-371 -372 0
-371 -373 0
-371 -374 0
-371 -375 0
-372 -373 0
-372 -374 0
-372 -375 0
-373 -374 0
-373 -375 0
-374 -375 0
376 377 378 379 380 0
-376 -377 0
-376 -378 0
-376 -379 0
-376 -380 0
-377 -378 0
-377 -379 0
-377 -380 0
-378 -379 0
-378 -380 0
-379 -380 0
381 382 383 384 385 0
-381 -382 0
-381 -383 0
-381 -384 0
-381 -385 0
-382 -383 0
-382 -384 0
-382 -385 0
-383 -384 0
-383 -385 0
-384 -385 0
386 387 388 389 390 0
-386 -387 0
-386 -388 0
-386 -389 0
-386 -390 0
-387 -388 0
-387 -389 0
-387 -390 0
-388 -389 0
-388 -390 0
-389 -390 0
391 392 393 394 395 0
-391 -392 0
-391 -393 0
-391 -394 0
-391 -395 0
-392 -393 0
-392 -394 0
-392 -395 0
-393 -394 0
-393 -395 0
-394 -395 0
396 397 398 399 400 0
-396 -397 0
-396 -398 0
-396 -399 0
-396 -400 0
-397 -398 0
-397 -399 0
-397 -400 0
-398 -399 0
-398 -400 0
-399 -400 0
401 402 403 404 405 0
-401 -402 0
-401 -403 0
-401 -404 0
-401 -405 0
-402 -403 0
-402 -404 0
-402 -405 0
-403 -404 0
-403 -405 0
-404 -405 0
406 407 408 409 410 0
-406 -407 0
-406 -408 0
-406 -409 0
-406 -410 0
-407 -408 0
-407 -409 0
-407 -410 0
-408 -409 0
-408 -410 0
-409 -410 0
411 412 413 414 415 0
-411 -412 0
-411 -413 0
-411 -414 0
-411 -415 0
-412 -413 0
-412 -414 0
-412 -415 0
-413 -414 0
-413 -415 0
-414 -415 0
416 417 418 419 420 0
-416 -417 0
-416 -418 0
-416 -419 0
-416 -420 0
-417 -418 0
-417 -419 0
-417 -420 0
-418 -419 0
-418 -420 0
-419 -420 0
421 422 423 424 425 0
-421 -422 0
-421 -423 0
-421 -424 0
-421 -425 0
-422 -423 0
-422 -424 0
-422 -425 0
-423 -424 0
-423 -425 0
-424 -425 0
426 427 428 429 430 0
-426 -427 0
-426 -428 0
-426 -429 0
-426 -430 0
-427 -428 0
-427 -429 0
-427 -430 0
-428 -429 0
-428 -430 0
-429 -430 0
431 432 433 434 435 0
-431 -432 0
-431 -433 0
-431 -434 0
-431 -435 0
-432 -433 0
-432 -434 0
-432 -435 0
-433 -434 0
-433 -435 0
-434 -435 0
436 437 438 439 440 0
-436 -437 0
-436 -438 0
-436 -439 0
-436 -440 0
-437 -438 0
-437 -439 0
-437 -440 0
-438 -439 0
-438 -440 0
-439 -440 0
441 442 443 444 445 0
-441 -442 0
-441 -443 0
-441 -444 0
-441 -445 0
-442 -443 0
-442 -444 0
-442 -445 0
-443 -444 0
-443 -445 0
-444 -445 0
446 447 448 449 450 0
-446 -447 0
-446 -448 0
-446 -449 0
-446 -450 0
-447 -448 0
-447 -449 0
-447 -450 0
-448 -449 0
-448 -450 0
-449 -450 0
451 452 453 454 455 0
-451 -452 0
-451 -453 0
-451 -454 0
-451 -455 0
-452 -453 0
-452 -454 0
-452 -455 0
-453 -454 0
-453 -455 0
-454 -455 0
456 457 458 459 460 0
-456 -457 0
-456 -458 0
-456 -459 0
-456 -460 0
-457 -458 0
-457 -459 0
-457 -460 0
-458 -459 0
-458 -460 0
-459 -460 0
461 462 463 464 465 0
-461 -462 0
-461 -463 0
-461 -464 0
-461 -465 0
-462 -463 0
-462 -464 0
-462 -465 0
-463 -464 0
-463 -465 0
-464 -465 0
466 467 468 469 470 0
-466 -467 0
-466 -468 0
-466 -469 0
-466 -470 0
-467 -468 0
-467 -469 0
-467 -470 0
-468 -469 0
-468 -470 0
-469 -470 0
471 472 473 474 475 0
-471 -472 0
-471 -473 0
-471 -474 0
-471 -475 0
-472 -473 0
-472 -474 0
-472 -475 0
-473 -474 0
-473 -475 0
-474 -475 0
476 477 478 479 480 0
-476 -477 0
-476 -478 0
-476 -479 0
-476 -480 0
-477 -478 0
-477 -479 0
-477 -480 0
-478 -479 0
-478 -480 0
-479 -480 0
481 482 483 484 485 0
-481 -482 0
-481 -483 0
-481 -484 0
-481 -485 0
-482 -483 0
-482 -484 0
-482 -485 0
-483 -484 0
-483 -485 0
-484 -485 0
486 487 488 489 490 0
-486 -487 0
-486 -488 0
-486 -489 0
-486 -490 0
-487 -488 0
-487 -489 0
-487 -490 0
-488 -489 0
-488 -490 0
-489 -490 0
491 492 493 494 495 0
-491 -492 0
-491 -493 0
-491 -494 0
-491 -495 0
-492 -493 0
-492 -494 0
-492 -495 0
-493 -494 0
-493 -495 0
-494 -495 0
496 497 498 499 500 0
-496 -497 0
-496 -498 0
-496 -499 0
-496 -500 0
-497 -498 0
-497 -499 0
-497 -500 0
-498 -499 0
-498 -500 0
-499 -500 0
501 502 503 504 505 0
-501 -502 0
-501 -503 0
-501 -504 0
-501 -505 0
-502 -503 0
-502 -504 0
-502 -505 0
-503 -504 0
-503 -505 0
-504 -505 0
506 507 508 509 510 0
-506 -507 0
-506 -508 0
-506 -509 0
-506 -510 0
-507 -508 0
-507 -509 0
-507 -510 0
-508 -509 0
-508 -510 0
-509 -510 0
511 512 513 514 515 0
-511 -512 0
-511 -513 0
-511 -514 0
-511 -515 0
-512 -513 0
-512 -514 0
-512 -515 0
-513 -514 0
-513 -515 0
-514 -515 0
516 517 518 519 520 0
-516 -517 0
-516 -518 0
-516 -519 0
-516 -520 0
-517 -518 0
-517 -519 0
-517 -520 0
-518 -519 0
-518 -520 0
-519 -520 0
521 522 523 524 525 0
-521 -522 0
-521 -523 0
-521 -524 0
-521 -525 0
-522 -523 0
-522 -524 0
-522 -525 0
-523 -524 0
-523 -525 0
-524 -525 0
526 527 528 529 530 0
-526 -527 0
-526 -528 0
-526 -529 0
-526 -530 0
-527 -528 0
-527 -529 0
-527 -530 0
-528 -529 0
-528 -530 0
-529 -530 0
531 532 533 534 535 0
-531 -532 0
-531 -533 0
-531 -534 0
-531 -535 0
-532 -533 0
-532 -534 0
-532 -535 0
-533 -534 0
-533 -535 0
-534 -535 0
536 537 538 539 540 0
-536 -537 0
-536 -538 0
-536 -539 0
-536 -540 0
-537 -538 0
-537 -539 0
-537 -540 0
-538 -539 0
-538 -540 0
-539 -540 0
541 542 543 544 545 0
-541 -542 0
-541 -543 0
-541 -544 0
-541 -545 0
-542 -543 0
-542 -544 0
-542 -545 0
-543 -544 0
-543 -545 0
-544 -545 0
546 547 548 549 550 0
-546 -547 0
-546 -548 0
-546 -549 0
-546 -550 0
-547 -548 0
-547 -549 0
-547 -550 0
-548 -549 0
-548 -550 0
-549 -550 0
551 552 553 554 555 0
-551 -552 0
-551 -553 0
-551 -554 0
-551 -555 0
-552 -553 0
-552 -554 0
-552 -555 0
-553 -554 0
-553 -555 0
-554 -555 0
556 557 558 559 560 0
-556 -557 0
-556 -558 0
-556 -559 0
-556 -560 0
-557 -558 0
-557 -559 0
-557 -560 0
-558 -559 0
-558 -560 0
-559 -560 0
561 562 563 564 565 0
-561 -562 0
-561 -563 0
-561 -564 0
-561 -565 0
-562 -563 0
-562 -564 0
-562 -565 0
-563 -564 0
-563 -565 0
-564 -565 0
566 567 568 569 570 0
-566 -567 0
-566 -568 0
-566 -569 0
-566 -570 0
-567 -568 0
-567 -569 0
-567 -570 0
-568 -569 0
-568 -570 0
-569 -570 0
571 572 573 574 575 0
-571 -572 0
-571 -573 0
-571 -574 0
-571 -575 0
-572 -573 0
-572 -574 0
-572 -575 0
-573 -574 0
-573 -575 0
-574 -575 0
576 577 578 579 580 0
-576 -577 0
-576 -578 0
-576 -579 0
-576 -580 0
-577 -578 0
-577 -579 0
-577 -580 0
-578 -579 0
-578 -580 0
-579 -580 0
581 582 583 584 585 0
-581 -582 0
-581 -583 0
-581 -584 0
-581 -585 0
-582 -583 0
-582 -584 0
-582 -585 0
-583 -584 0
-583 -585 0
-584 -585 0
586 587 588 589 590 0
-586 -587 0
-586 -588 0
-586 -589 0
-586 -590 0
-587 -588 0
-587 -589 0
-587 -590 0
-588 -589 0
-588 -590 0
-589 -590 0
591 592 593 594 595 0
-591 -592 0
-591 -593 0
-591 -594 0
-591 -595 0
-592 -593 0
-592 -594 0
-592 -595 0
-593 -594 0
-593 -595 0
-594 -595 0
596 597 598 599 600 0
-596 -597 0
-596 -598 0
-596 -599 0
-596 -600 0
-597 -598 0
-597 -599 0
-597 -600 0
-598 -599 0
-598 -600 0
-599 -600 0
601 602 603 604 605 0
-601 -602 0
-601 -603 0
-601 -604 0
-601 -605 0
-602 -603 0
-602 -604 0
-602 -605 0
-603 -604 0
-603 -605 0
-604 -605 0
606 607 608 609 610 0
-606 -607 0
-606 -608 0
-606 -609 0
-606 -610 0
-607 -608 0
-607 -609 0
-607 -610 0
-608 -609 0
-608 -610 0
-609 -610 0
611 612 613 614 615 0
-611 -612 0
-611 -613 0
-611 -614 0
-611 -615 0
-612 -613 0
-612 -614 0
-612 -615 0
-613 -614 0
-613 -615 0
-614 -615 0
616 617 618 619 620 0
-616 -617 0
-616 -618 0
-616 -619 0
-616 -620 0
-617 -618 0
-617 -619 0
-617 -620 0
-618 -619 0
-618 -620 0
-619 -620 0
621 622 623 624 625 0
-621 -622 0
-621 -623 0
-621 -624 0
-621 -625 0
-622 -623 0
-622 -624 0
-622 -625 0
-623 -624 0
-623 -625 0
-624 -625 0
626 627 628 629 630 0
-626 -627 0
-626 -628 0
-626 -629 0
-626 -630 0
-627 -628 0
-627 -629 0
-627 -630 0
-628 -629 0
-628 -630 0
-629 -630 0
631 632 633 634 635 0
-631 -632 0
-631 -633 0
-631 -634 0
-631 -635 0
-632 -633 0
-632 -634 0
-632 -635 0
-633 -634 0
-633 -635 0
-634 -635 0
636 637 638 639 640 0
-636 -637 0
-636 -638 0
-636 -639 0
-636 -640 0
-637 -638 0
-637 -639 0
-637 -640 0
-638 -639 0
-638 -640 0
-639 -640 0
641 642 643 644 645 0
-641 -642 0
-641 -643 0
-641 -644 0
-641 -645 0
-642 -643 0
-642 -644 0
-642 -645 0
-643 -644 0
-643 -645 0
-644 -645 0
646 647 648 649 650 0
-646 -647 0
-646 -648 0
-646 -649 0
-646 -650 0
-647 -648 0
-647 -649 0
-647 -650 0
-648 -649 0
-648 -650 0
-649 -650 0
651 652 653 654 655 0
-651 -652 0
-651 -653 0
-651 -654 0
-651 -655 0
-652 -653 0
-652 -654 0
-652 -655 0
-653 -654 0
-653 -655 0
-654 -655 0
656 657 658 659 660 0
-656 -657 0
-656 -658 0
-656 -659 0
-656 -660 0
-657 -658 0
-657 -659 0
-657 -660 0
-658 -659 0
-658 -660 0
-659 -660 0
661 662 663 664 665 0
-661 -662 0
-661 -663 0
-661 -664 0
-661 -665 0
-662 -663 0
-662 -664 0
-662 -665 0
-663 -664 0
-663 -665 0
-664 -665 0
666 667 668 669 670 0
-666 -667 0
-666 -668 0
-666 -669 0
-666 -670 0
-667 -668 0
-667 -669 0
-667 -670 0
-668 -669 0
-668 -670 0
-669 -670 0
671 672 673 674 675 0
-671 -672 0
-671 -673 0
-671 -674 0
-671 -675 0
-672 -673 0
-672 -674 0
-672 -675 0
-673 -674 0
-673 -675 0
-674 -675 0
676 677 678 679 680 0
-676 -677 0
-676 -678 0
-676 -679 0
-676 -680 0
-677 -678 0
-677 -679 0
-677 -680 0
-678 -679 0
-678 -680 0
-679 -680 0
681 682 683 684 685 0
-681 -682 0
-681 -683 0
-681 -684 0
-681 -685 0
-682 -683 0
-682 -684 0
-682 -685 0
-683 -684 0
-683 -685 0
-684 -685 0
686 687 688 689 690 0
-686 -687 0
-686 -688 0
-686 -689 0
-686 -690 0
-687 -688 0
-687 -689 0
-687 -690 0
-688 -689 0
-688 -690 0
-689 -690 0
691 692 693 694 695 0
-691 -692 0
-691 -693 0
-691 -694 0
-691 -695 0
-692 -693 0
-692 -694 0
-692 -695 0
-693 -694 0
-693 -695 0
-694 -695 0
696 697 698 699 700 0
-696 -697 0
-696 -698 0
-696 -699 0
-696 -700 0
-697 -698 0
-697 -699 0
-697 -700 0
-698 -699 0
-698 -700 0
-699 -700 0
701 702 703 704 705 0
-701 -702 0
-701 -703 0
-701 -704 0
-701 -705 0
-702 -703 0
-702 -704 0
-702 -705 0
-703 -704 0
-703 -705 0
-704 -705 0
706 707 708 709 710 0
-706 -707 0
-706 -708 0
-706 -709 0
-706 -710 0
-707 -708 0
-707 -709 0
-707 -710 0
-708 -709 0
-708 -710 0
-709 -710 0
711 712 713 714 715 0
-711 -712 0
-711 -713 0
-711 -714 0
-711 -715 0
-712 -713 0
-712 -714 0
-712 -715 0
-713 -714 0
-713 -715 0
-714 -715 0
716 717 718 719 720 0
-716 -717 0
-716 -718 0
-716 -719 0
-716 -720 0
-717 -718 0
-717 -719 0
-717 -720 0
-718 -719 0
-718 -720 0
-719 -720 0
721 722 723 724 725 0
-721 -722 0
-721 -723 0
-721 -724 0
-721 -725 0
-722 -723 0
-722 -724 0
-722 -725 0
-723 -724 0
-723 -725 0
-724 -725 0
726 727 728 729 730 0
-726 -727 0
-726 -728 0
-726 -729 0
-726 -730 0
-727 -728 0
-727 -729 0
-727 -730 0
-728 -729 0
-728 -730 0
-729 -730 0
731 732 733 734 735 0
-731 -732 0
-731 -733 0
-731 -734 0
-731 -735 0
-732 -733 0
-732 -734 0
-732 -735 0
-733 -734 0
-733 -735 0
-734 -735 0
736 737 738 739 740 0
-736 -737 0
-736 -738 0
-736 -739 0
-736 -740 0
-737 -738 0
-737 -739 0
-737 -740 0
-738 -739 0
-738 -740 0
-739 -740 0
741 742 743 744 745 0
-741 -742 0
-741 -743 0
-741 -744 0
-741 -745 0
-742 -743 0
-742 -744 0
-742 -745 0
-743 -744 0
-743 -745 0
-744 -745 0
746 747 748 749 750 0
-746 -747 0
-746 -748 0
-746 -749 0
-746 -750 0
-747 -748 0
-747 -749 0
-747 -750 0
-748 -749 0
-748 -750 0
-749 -750 0
751 752 753 754 755 0
-751 -752 0
-751 -753 0
-751 -754 0
-751 -755 0
-752 -753 0
-752 -754 0
-752 -755 0
-753 -754 0
-753 -755 0
-754 -755 0
756 757 758 759 760 0
-756 -757 0
-756 -758 0
-756 -759 0
-756 -760 0
-757 -758 0
-757 -759 0
-757 -760 0
-758 -759 0
-758 -760 0
-759 -760 0
761 762 763 764 765 0
-761 -762 0
-761 -763 0
-761 -764 0
-761 -765 0
-762 -763 0
-762 -764 0
-762 -765 0
-763 -764 0
-763 -765 0
-764 -765 0
766 767 768 769 770 0
-766 -767 0
-766 -768 0
-766 -769 0
-766 -770 0
-767 -768 0
-767 -769 0
-767 -770 0
-768 -769 0
-768 -770 0
-769 -770 0
771 772 773 774 775 0
-771 -772 0
-771 -773 0
-771 -774 0
-771 -775 0
-772 -773 0
-772 -774 0
-772 -775 0
-773 -774 0
-773 -775 0
-774 -775 0
776 777 778 779 780 0
-776 -777 0
-776 -778 0
-776 -779 0
-776 -780 0
-777 -778 0
-777 -779 0
-777 -780 0
-778 -779 0
-778 -780 0
-779 -780 0
781 782 783 784 785 0
-781 -782 0
-781 -783 0
-781 -784 0
-781 -785 0
-782 -783 0
-782 -784 0
-782 -785 0
-783 -784 0
-783 -785 0
-784 -785 0
786 787 788 789 790 0
-786 -787 0
-786 -788 0
-786 -789 0
-786 -790 0
-787 -788 0
-787 -789 0
-787 -790 0
-788 -789 0
-788 -790 0
-789 -790 0
791 792 793 794 795 0
-791 -792 0
-791 -793 0
-791 -794 0
-791 -795 0
-792 -793 0
-792 -794 0
-792 -795 0
-793 -794 0
-793 -795 0
-794 -795 0
796 797 798 799 800 0
-796 -797 0
-796 -798 0
-796 -799 0
-796 -800 0
-797 -798 0
-797 -799 0
-797 -800 0
-798 -799 0
-798 -800 0
-799 -800 0
801 802 803 804 805 0
-801 -802 0
-801 -803 0
-801 -804 0
-801 -805 0
-802 -803 0
-802 -804 0
-802 -805 0
-803 -804 0
-803 -805 0
-804 -805 0
806 807 808 809 810 0
-806 -807 0
-806 -808 0
-806 -809 0
-806 -810 0
-807 -808 0
-807 -809 0
-807 -810 0
-808 -809 0
-808 -810 0
-809 -810 0
811 812 813 814 815 0
-811 -812 0
-811 -813 0
-811 -814 0
-811 -815 0
-812 -813 0
-812 -814 0
-812 -815 0
-813 -814 0
-813 -815 0
-814 -815 0
816 817 818 819 820 0
-816 -817 0
-816 -818 0
-816 -819 0
-816 -820 0
-817 -818 0
-817 -819 0
-817 -820 0
-818 -819 0
-818 -820 0
-819 -820 0
821 822 823 824 825 0
-821 -822 0
-821 -823 0
-821 -824 0
-821 -825 0
-822 -823 0
-822 -824 0
-822 -825 0
-823 -824 0
-823 -825 0
-824 -825 0
826 827 828 829 830 0
-826 -827 0
-826 -828 0
-826 -829 0
-826 -830 0
-827 -828 0
-827 -829 0
-827 -830 0
-828 -829 0
-828 -830 0
-829 -830 0
831 832 833 834 835 0
-831 -832 0
-831 -833 0
-831 -834 0
-831 -835 0
-832 -833 0
-832 -834 0
-832 -835 0
-833 -834 0
-833 -835 0
-834 -835 0
836 837 838 839 840 0
-836 -837 0
-836 -838 0
-836 -839 0
-836 -840 0
-837 -838 0
-837 -839 0
-837 -840 0
-838 -839 0
-838 -840 0
-839 -840 0
841 842 843 844 845 0
-841 -842 0
-841 -843 0
-841 -844 0
-841 -845 0
-842 -843 0
-842 -844 0
-842 -845 0
-843 -844 0
-843 -845 0
-844 -845 0
846 847 848 849 850 0
-846 -847 0
-846 -848 0
-846 -849 0
-846 -850 0
-847 -848 0
-847 -849 0
-847 -850 0
-848 -849 0
-848 -850 0
-849 -850 0
851 852 853 854 855 0
-851 -852 0
-851 -853 0
-851 -854 0
-851 -855 0
-852 -853 0
-852 -854 0
-852 -855 0
-853 -854 0
-853 -855 0
-854 -855 0
856 857 858 859 860 0
-856 -857 0
-856 -858 0
-856 -859 0
-856 -860 0
-857 -858 0
-857 -859 0
-857 -860 0
-858 -859 0
-858 -860 0
-859 -860 0
861 862 863 864 865 0
-861 -862 0
-861 -863 0
-861 -864 0
-861 -865 0
-862 -863 0
-862 -864 0
-862 -865 0
-863 -864 0
-863 -865 0
-864 -865 0
866 867 868 869 870 0
-866 -867 0
-866 -868 0
-866 -869 0
-866 -870 0
-867 -868 0
-867 -869 0
-867 -870 0
-868 -869 0
-868 -870 0
-869 -870 0
871 872 873 874 875 0
-871 -872 0
-871 -873 0
-871 -874 0
-871 -875 0
-872 -873 0
-872 -874 0
-872 -875 0
-873 -874 0
-873 -875 0
-874 -875 0
876 877 878 879 880 0
-876 -877 0
-876 -878 0
-876 -879 0
-876 -880 0
-877 -878 0
-877 -879 0
-877 -880 0
-878 -879 0
-878 -880 0
-879 -880 0
881 882 883 884 885 0
-881 -882 0
-881 -883 0
-881 -884 0
-881 -885 0
-882 -883 0
-882 -884 0
-882 -885 0
-883 -884 0
-883 -885 0
-884 -885 0
886 887 888 889 890 0
-886 -887 0
-886 -888 0
-886 -889 0
-886 -890 0
-887 -888 0
-887 -889 0
-887 -890 0
-888 -889 0
-888 -890 0
-889 -890 0
891 892 893 894 895 0
-891 -892 0
-891 -893 0
-891 -894 0
-891 -895 0
-892 -893 0
-892 -894 0
-892 -895 0
-893 -894 0
-893 -895 0
-894 -895 0
896 897 898 899 900 0
-896 -897 0
-896 -898 0
-896 -899 0
-896 -900 0
-897 -898 0
-897 -899 0
-897 -900 0
-898 -899 0
-898 -900 0
-899 -900 0
901 902 903 904 905 0
-901 -902 0
-901 -903 0
-901 -904 0
-901 -905 0
-902 -903 0
-902 -904 0
-902 -905 0
-903 -904 0
-903 -905 0
-904 -905 0
906 907 908 909 910 0
-906 -907 0
-906 -908 0
-906 -909 0
-906 -910 0
-907 -908 0
-907 -909 0
-907 -910 0
-908 -909 0
-908 -910 0
-909 -910 0
911 912 913 914 915 0
-911 -912 0
-911 -913 0
-911 -914 0
-911 -915 0
-912 -913 0
-912 -914 0
-912 -915 0
-913 -914 0
-913 -915 0
-914 -915 0
916 917 918 919 920 0
-916 -917 0
-916 -918 0
-916 -919 0
-916 -920 0
-917 -918 0
-917 -919 0
-917 -920 0
-918 -919 0
-918 -920 0
-919 -920 0
921 922 923 924 925 0
-921 -922 0
-921 -923 0
-921 -924 0
-921 -925 0
-922 -923 0
-922 -924 0
-922 -925 0
-923 -924 0
-923 -925 0
-924 -925 0
926 927 928 929 930 0
-926 -927 0
-926 -928 0
-926 -929 0
-926 -930 0
-927 -928 0
-927 -929 0
-927 -930 0
-928 -929 0
-928 -930 0
-929 -930 0
931 932 933 934 935 0
-931 -932 0
-931 -933 0
-931 -934 0
-931 -935 0
-932 -933 0
-932 -934 0
-932 -935 0
-933 -934 0
-933 -935 0
-934 -935 0
936 937 938 939 940 0
-936 -937 0
-936 -938 0
-936 -939 0
-936 -940 0
-937 -938 0
-937 -939 0
-937 -940 0
-938 -939 0
-938 -940 0
-939 -940 0
941 942 943 944 945 0
-941 -942 0
-941 -943 0
-941 -944 0
-941 -945 0
-942 -943 0
-942 -944 0
-942 -945 0
-943 -944 0
-943 -945 0
-944 -945 0
946 947 948 949 950 0
-946 -947 0
-946 -948 0
-946 -949 0
-946 -950 0
-947 -948 0
-947 -949 0
-947 -950 0
-948 -949 0
-948 -950 0
-949 -950 0
951 952 953 954 955 0
-951 -952 0
-951 -953 0
-951 -954 0
-951 -955 0
-952 -953 0
-952 -954 0
-952 -955 0
-953 -954 0
-953 -955 0
-954 -955 0
956 957 958 959 960 0
-956 -957 0
-956 -958 0
-956 -959 0
-956 -960 0
-957 -958 0
-957 -959 0
-957 -960 0
-958 -959 0
-958 -960 0
-959 -960 0
961 962 963 964 965 0
-961 -962 0
-961 -963 0
-961 -964 0
-961 -965 0
-962 -963 0
-962 -964 0
-962 -965 0
-963 -964 0
-963 -965 0
-964 -965 0
966 967 968 969 970 0
-966 -967 0
-966 -968 0
-966 -969 0
-966 -970 0
-967 -968 0
-967 -969 0
-967 -970 0
-968 -969 0
-968 -970 0
-969 -970 0
971 972 973 974 975 0
-971 -972 0
-971 -973 0
-971 -974 0
-971 -975 0
-972 -973 0
-972 -974 0
-972 -975 0
-973 -974 0
-973 -975 0
-974 -975 0
976 977 978 979 980 0
-976 -977 0
-976 -978 0
-976 -979 0
-976 -980 0
-977 -978 0
-977 -979 0
-977 -980 0
-978 -979 0
-978 -980 0
-979 -980 0
981 982 983 984 985 0
-981 -982 0
-981 -983 0
-981 -984 0
-981 -985 0
-982 -983 0
-982 -984 0
-982 -985 0
-983 -984 0
-983 -985 0
-984 -985 0
986 987 988 989 990 0
-986 -987 0
-986 -988 0
-986 -989 0
-986 -990 0
-987 -988 0
-987 -989 0
-987 -990 0
-988 -989 0
-988 -990 0
-989 -990 0
991 992 993 994 995 0
-991 -992 0
-991 -993 0
-991 -994 0
-991 -995 0
-992 -993 0
-992 -994 0
-992 -995 0
-993 -994 0
-993 -995 0
-994 -995 0
996 997 998 999 1000 0
-996 -997 0
-996 -998 0
-996 -999 0
-996 -1000 0
-997 -998 0
-997 -999 0
-997 -1000 0
-998 -999 0
-998 -1000 0
-999 -1000 0
1001 1002 1003 1004 1005 0
-1001 -1002 0
-1001 -1003 0
-1001 -1004 0
-1001 -1005 0
-1002 -1003 0
-1002 -1004 0
-1002 -1005 0
-1003 -1004 0
-1003 -1005 0
-1004 -1005 0
1006 1007 1008 1009 1010 0
-1006 -1007 0
-1006 -1008 0
-1006 -1009 0
-1006 -1010 0
-1007 -1008 0
-1007 -1009 0
-1007 -1010 0
-1008 -1009 0
-1008 -1010 0
-1009 -1010 0
1011 1012 1013 1014 1015 0
-1011 -1012 0
-1011 -1013 0
-1011 -1014 0
-1011 -1015 0
-1012 -1013 0
-1012 -1014 0
-1012 -1015 0
-1013 -1014 0
-1013 -1015 0
-1014 -1015 0
1016 1017 1018 1019 1020 0
-1016 -1017 0
-1016 -1018 0
-1016 -1019 0
-1016 -1020 0
-1017 -1018 0
-1017 -1019 0
-1017 -1020 0
-1018 -1019 0
-1018 -1020 0
-1019 -1020 0
1021 1022 1023 1024 1025 0
-1021 -1022 0
-1021 -1023 0
-1021 -1024 0
-1021 -1025 0
-1022 -1023 0
-1022 -1024 0
-1022 -1025 0
-1023 -1024 0
-1023 -1025 0
-1024 -1025 0
1026 1027 1028 1029 1030 0
-1026 -1027 0
-1026 -1028 0
-1026 -1029 0
-1026 -1030 0
-1027 -1028 0
-1027 -1029 0
-1027 -1030 0
-1028 -1029 0
-1028 -1030 0
-1029 -1030 0
1031 1032 1033 1034 1035 0
-1031 -1032 0
-1031 -1033 0
-1031 -1034 0
-1031 -1035 0
-1032 -1033 0
-1032 -1034 0
-1032 -1035 0
-1033 -1034 0
-1033 -1035 0
-1034 -1035 0
1036 1037 1038 1039 1040 0
-1036 -1037 0
-1036 -1038 0
-1036 -1039 0
-1036 -1040 0
-1037 -1038 0
-1037 -1039 0
-1037 -1040 0
-1038 -1039 0
-1038 -1040 0
-1039 -1040 0
1041 1042 1043 1044 1045 0
-1041 -1042 0
-1041 -1043 0
-1041 -1044 0
-1041 -1045 0
-1042 -1043 0
-1042 -1044 0
-1042 -1045 0
-1043 -1044 0
-1043 -1045 0
-1044 -1045 0
1046 1047 1048 1049 1050 0
-1046 -1047 0
-1046 -1048 0
-1046 -1049 0
-1046 -1050 0
-1047 -1048 0
-1047 -1049 0
-1047 -1050 0
-1048 -1049 0
-1048 -1050 0
-1049 -1050 0
1051 1052 1053 1054 1055 0
-1051 -1052 0
-1051 -1053 0
-1051 -1054 0
-1051 -1055 0
-1052 -1053 0
-1052 -1054 0
-1052 -1055 0
-1053 -1054 0
-1053 -1055 0
-1054 -1055 0
1056 1057 1058 1059 1060 0
-1056 -1057 0
-1056 -1058 0
-1056 -1059 0
-1056 -1060 0
-1057 -1058 0
-1057 -1059 0
-1057 -1060 0
-1058 -1059 0
-1058 -1060 0
-1059 -1060 0
1061 1062 1063 1064 1065 0
-1061 -1062 0
-1061 -1063 0
-1061 -1064 0
-1061 -1065 0
-1062 -1063 0
-1062 -1064 0
-1062 -1065 0
-1063 -1064 0
-1063 -1065 0
-1064 -1065 0
1066 1067 1068 1069 1070 0
-1066 -1067 0
-1066 -1068 0
-1066 -1069 0
-1066 -1070 0
-1067 -1068 0
-1067 -1069 0
-1067 -1070 0
-1068 -1069 0
-1068 -1070 0
-1069 -1070 0
1071 1072 1073 1074 1075 0
-1071 -1072 0
-1071 -1073 0
-1071 -1074 0
-1071 -1075 0
-1072 -1073 0
-1072 -1074 0
-1072 -1075 0
-1073 -1074 0
-1073 -1075 0
-1074 -1075 0
1076 1077 1078 1079 1080 0
-1076 -1077 0
-1076 -1078 0
-1076 -1079 0
-1076 -1080 0
-1077 -1078 0
-1077 -1079 0
-1077 -1080 0
-1078 -1079 0
-1078 -1080 0
-1079 -1080 0
1081 1082 1083 1084 1085 0
-1081 -1082 0
-1081 -1083 0
-1081 -1084 0
-1081 -1085 0
-1082 -1083 0
-1082 -1084 0
-1082 -1085 0
-1083 -1084 0
-1083 -1085 0
-1084 -1085 0
1086 1087 1088 1089 1090 0
-1086 -1087 0
-1086 -1088 0
-1086 -1089 0
-1086 -1090 0
-1087 -1088 0
-1087 -1089 0
-1087 -1090 0
-1088 -1089 0
-1088 -1090 0
-1089 -1090 0
1091 1092 1093 1094 1095 0
-1091 -1092 0
-1091 -1093 0
-1091 -1094 0
-1091 -1095 0
-1092 -1093 0
-1092 -1094 0
-1092 -1095 0
-1093 -1094 0
-1093 -1095 0
-1094 -1095 0
1096 1097 1098 1099 1100 0
-1096 -1097 0
-1096 -1098 0
-1096 -1099 0
-1096 -1100 0
-1097 -1098 0
-1097 -1099 0
-1097 -1100 0
-1098 -1099 0
-1098 -1100 0
-1099 -1100 0
1101 1102 1103 1104 1105 0
-1101 -1102 0
-1101 -1103 0
-1101 -1104 0
-1101 -1105 0
-1102 -1103 0
-1102 -1104 0
-1102 -1105 0
-1103 -1104 0
-1103 -1105 0
-1104 -1105 0
1106 1107 1108 1109 1110 0
-1106 -1107 0
-1106 -1108 0
-1106 -1109 0
-1106 -1110 0
-1107 -1108 0
-1107 -1109 0
-1107 -1110 0
-1108 -1109 0
-1108 -1110 0
-1109 -1110 0
1111 1112 1113 1114 1115 0
-1111 -1112 0
-1111 -1113 0
-1111 -1114 0
-1111 -1115 0
-1112 -1113 0
-1112 -1114 0
-1112 -1115 0
-1113 -1114 0
-1113 -1115 0
-1114 -1115 0
1116 1117 1118 1119 1120 0
-1116 -1117 0
-1116 -1118 0
-1116 -1119 0
-1116 -1120 0
-1117 -1118 0
-1117 -1119 0
-1117 -1120 0
-1118 -1119 0
-1118 -1120 0
-1119 -1120 0
1121 1122 1123 1124 1125 0
-1121 -1122 0
-1121 -1123 0
-1121 -1124 0
-1121 -1125 0
-1122 -1123 0
-1122 -1124 0
-1122 -1125 0
-1123 -1124 0
-1123 -1125 0
-1124 -1125 0
1126 1127 1128 1129 1130 0
-1126 -1127 0
-1126 -1128 0
-1126 -1129 0
-1126 -1130 0
-1127 -1128 0
-1127 -1129 0
-1127 -1130 0
-1128 -1129 0
-1128 -1130 0
-1129 -1130 0
1131 1132 1133 1134 1135 0
-1131 -1132 0
-1131 -1133 0
-1131 -1134 0
-1131 -1135 0
-1132 -1133 0
-1132 -1134 0
-1132 -1135 0
-1133 -1134 0
-1133 -1135 0
-1134 -1135 0
1136 1137 1138 1139 1140 0
-1136 -1137 0
-1136 -1138 0
-1136 -1139 0
-1136 -1140 0
-1137 -1138 0
-1137 -1139 0
-1137 -1140 0
-1138 -1139 0
-1138 -1140 0
-1139 -1140 0
1141 1142 1143 1144 1145 0
-1141 -1142 0
-1141 -1143 0
-1141 -1144 0
-1141 -1145 0
-1142 -1143 0
-1142 -1144 0
-1142 -1145 0
-1143 -1144 0
-1143 -1145 0
-1144 -1145 0
1146 1147 1148 1149 1150 0
-1146 -1147 0
-1146 -1148 0
-1146 -1149 0
-1146 -1150 0
-1147 -1148 0
-1147 -1149 0
-1147 -1150 0
-1148 -1149 0
-1148 -1150 0
-1149 -1150 0
1151 1152 1153 1154 1155 0
-1151 -1152 0
-1151 -1153 0
-1151 -1154 0
-1151 -1155 0
-1152 -1153 0
-1152 -1154 0
-1152 -1155 0
-1153 -1154 0
-1153 -1155 0
-1154 -1155 0
1156 1157 1158 1159 1160 0
-1156 -1157 0
-1156 -1158 0
-1156 -1159 0
-1156 -1160 0
-1157 -1158 0
-1157 -1159 0
-1157 -1160 0
-1158 -1159 0
-1158 -1160 0
-1159 -1160 0
1161 1162 1163 1164 1165 0
-1161 -1162 0
-1161 -1163 0
-1161 -1164 0
-1161 -1165 0
-1162 -1163 0
-1162 -1164 0
-1162 -1165 0
-1163 -1164 0
-1163 -1165 0
-1164 -1165 0
1166 1167 1168 1169 1170 0
-1166 -1167 0
-1166 -1168 0
-1166 -1169 0
-1166 -1170 0
-1167 -1168 0
-1167 -1169 0
-1167 -1170 0
-1168 -1169 0
-1168 -1170 0
-1169 -1170 0
1171 1172 1173 1174 1175 0
-1171 -1172 0
-1171 -1173 0
-1171 -1174 0
-1171 -1175 0
-1172 -1173 0
-1172 -1174 0
-1172 -1175 0
-1173 -1174 0
-1173 -1175 0
-1174 -1175 0
1176 1177 1178 1179 1180 0
-1176 -1177 0
-1176 -1178 0
-1176 -1179 0
-1176 -1180 0
-1177 -1178 0
-1177 -1179 0
-1177 -1180 0
-1178 -1179 0
-1178 -1180 0
-1179 -1180 0
1181 1182 1183 1184 1185 0
-1181 -1182 0
-1181 -1183 0
-1181 -1184 0
-1181 -1185 0
-1182 -1183 0
-1182 -1184 0
-1182 -1185 0
-1183 -1184 0
-1183 -1185 0
-1184 -1185 0
1186 1187 1188 1189 1190 0
-1186 -1187 0
-1186 -1188 0
-1186 -1189 0
-1186 -1190 0
-1187 -1188 0
-1187 -1189 0
-1187 -1190 0
-1188 -1189 0
-1188 -1190 0
-1189 -1190 0
1191 1192 1193 1194 1195 0
-1191 -1192 0
-1191 -1193 0
-1191 -1194 0
-1191 -1195 0
-1192 -1193 0
-1192 -1194 0
-1192 -1195 0
-1193 -1194 0
-1193 -1195 0
-1194 -1195 0
1196 1197 1198 1199 1200 0
-1196 -1197 0
-1196 -1198 0
-1196 -1199 0
-1196 -1200 0
-1197 -1198 0
-1197 -1199 0
-1197 -1200 0
-1198 -1199 0
-1198 -1200 0
-1199 -1200 0
1201 1202 1203 1204 1205 0
-1201 -1202 0
-1201 -1203 0
-1201 -1204 0
-1201 -1205 0
-1202 -1203 0
-1202 -1204 0
-1202 -1205 0
-1203 -1204 0
-1203 -1205 0
-1204 -1205 0
1206 1207 1208 1209 1210 0
-1206 -1207 0
-1206 -1208 0
-1206 -1209 0
-1206 -1210 0
-1207 -1208 0
-1207 -1209 0
-1207 -1210 0
-1208 -1209 0
-1208 -1210 0
-1209 -1210 0
1211 1212 1213 1214 1215 0
-1211 -1212 0
-1211 -1213 0
-1211 -1214 0
-1211 -1215 0
-1212 -1213 0
-1212 -1214 0
-1212 -1215 0
-1213 -1214 0
-1213 -1215 0
-1214 -1215 0
1216 1217 1218 1219 1220 0
-1216 -1217 0
-1216 -1218 0
-1216 -1219 0
-1216 -1220 0
-1217 -1218 0
-1217 -1219 0
-1217 -1220 0
-1218 -1219 0
-1218 -1220 0
-1219 -1220 0
1221 1222 1223 1224 1225 0
-1221 -1222 0
-1221 -1223 0
-1221 -1224 0
-1221 -1225 0
-1222 -1223 0
-1222 -1224 0
-1222 -1225 0
-1223 -1224 0
-1223 -1225 0
-1224 -1225 0
1226 1227 1228 1229 1230 0
-1226 -1227 0
-1226 -1228 0
-1226 -1229 0
-1226 -1230 0
-1227 -1228 0
-1227 -1229 0
-1227 -1230 0
-1228 -1229 0
-1228 -1230 0
-1229 -1230 0
1231 1232 1233 1234 1235 0
-1231 -1232 0
-1231 -1233 0
-1231 -1234 0
-1231 -1235 0
-1232 -1233 0
-1232 -1234 0
-1232 -1235 0
-1233 -1234 0
-1233 -1235 0
-1234 -1235 0
1236 1237 1238 1239 1240 0
-1236 -1237 0
-1236 -1238 0
-1236 -1239 0
-1236 -1240 0
-1237 -1238 0
-1237 -1239 0
-1237 -1240 0
-1238 -1239 0
-1238 -1240 0
-1239 -1240 0
1241 1242 1243 1244 1245 0
-1241 -1242 0
-1241 -1243 0
-1241 -1244 0
-1241 -1245 0
-1242 -1243 0
-1242 -1244 0
-1242 -1245 0
-1243 -1244 0
-1243 -1245 0
-1244 -1245 0
1246 1247 1248 1249 1250 0
-1246 -1247 0
-1246 -1248 0
-1246 -1249 0
-1246 -1250 0
-1247 -1248 0
-1247 -1249 0
-1247 -1250 0
-1248 -1249 0
-1248 -1250 0
-1249 -1250 0
1251 1252 1253 1254 1255 0
-1251 -1252 0
-1251 -1253 0
-1251 -1254 0
-1251 -1255 0
-1252 -1253 0
-1252 -1254 0
-1252 -1255 0
-1253 -1254 0
-1253 -1255 0
-1254 -1255 0
1256 1257 1258 1259 1260 0
-1256 -1257 0
-1256 -1258 0
-1256 -1259 0
-1256 -1260 0
-1257 -1258 0
-1257 -1259 0
-1257 -1260 0
-1258 -1259 0
-1258 -1260 0
-1259 -1260 0
1261 1262 1263 1264 1265 0
-1261 -1262 0
-1261 -1263 0
-1261 -1264 0
-1261 -1265 0
-1262 -1263 0
-1262 -1264 0
-1262 -1265 0
-1263 -1264 0
-1263 -1265 0
-1264 -1265 0
1266 1267 1268 1269 1270 0
-1266 -1267 0
-1266 -1268 0
-1266 -1269 0
-1266 -1270 0
-1267 -1268 0
-1267 -1269 0
-1267 -1270 0
-1268 -1269 0
-1268 -1270 0
-1269 -1270 0
1271 1272 1273 1274 1275 0
-1271 -1272 0
-1271 -1273 0
-1271 -1274 0
-1271 -1275 0
-1272 -1273 0
-1272 -1274 0
-1272 -1275 0
-1273 -1274 0
-1273 -1275 0
-1274 -1275 0
1276 1277 1278 1279 1280 0
-1276 -1277 0
-1276 -1278 0
-1276 -1279 0
-1276 -1280 0
-1277 -1278 0
-1277 -1279 0
-1277 -1280 0
-1278 -1279 0
-1278 -1280 0
-1279 -1280 0
1281 1282 1283 1284 1285 0
-1281 -1282 0
-1281 -1283 0
-1281 -1284 0
-1281 -1285 0
-1282 -1283 0
-1282 -1284 0
-1282 -1285 0
-1283 -1284 0
-1283 -1285 0
-1284 -1285 0
1286 1287 1288 1289 1290 0
-1286 -1287 0
-1286 -1288 0
-1286 -1289 0
-1286 -1290 0
-1287 -1288 0
-1287 -1289 0
-1287 -1290 0
-1288 -1289 0
-1288 -1290 0
-1289 -1290 0
1291 1292 1293 1294 1295 0
-1291 -1292 0
-1291 -1293 0
-1291 -1294 0
-1291 -1295 0
-1292 -1293 0
-1292 -1294 0
-1292 -1295 0
-1293 -1294 0
-1293 -1295 0
-1294 -1295 0
1296 1297 1298 1299 1300 0
-1296 -1297 0
-1296 -1298 0
-1296 -1299 0
-1296 -1300 0
-1297 -1298 0
-1297 -1299 0
-1297 -1300 0
-1298 -1299 0
-1298 -1300 0
-1299 -1300 0
1301 1302 1303 1304 1305 0
-1301 -1302 0
-1301 -1303 0
-1301 -1304 0
-1301 -1305 0
-1302 -1303 0
-1302 -1304 0
-1302 -1305 0
-1303 -1304 0
-1303 -1305 0
-1304 -1305 0
1306 1307 1308 1309 1310 0
-1306 -1307 0
-1306 -1308 0
-1306 -1309 0
-1306 -1310 0
-1307 -1308 0
-1307 -1309 0
-1307 -1310 0
-1308 -1309 0
-1308 -1310 0
-1309 -1310 0
1311 1312 1313 1314 1315 0
-1311 -1312 0
-1311 -1313 0
-1311 -1314 0
-1311 -1315 0
-1312 -1313 0
-1312 -1314 0
-1312 -1315 0
-1313 -1314 0
-1313 -1315 0
-1314 -1315 0
1316 1317 1318 1319 1320 0
-1316 -1317 0
-1316 -1318 0
-1316 -1319 0
-1316 -1320 0
-1317 -1318 0
-1317 -1319 0
-1317 -1320 0
-1318 -1319 0
-1318 -1320 0
-1319 -1320 0
1321 1322 1323 1324 1325 0
-1321 -1322 0
-1321 -1323 0
-1321 -1324 0
-1321 -1325 0
-1322 -1323 0
-1322 -1324 0
-1322 -1325 0
-1323 -1324 0
-1323 -1325 0
-1324 -1325 0
1326 1327 1328 1329 1330 0
-1326 -1327 0
-1326 -1328 0
-1326 -1329 0
-1326 -1330 0
-1327 -1328 0
-1327 -1329 0
-1327 -1330 0
-1328 -1329 0
-1328 -1330 0
-1329 -1330 0
1331 1332 1333 1334 1335 0
-1331 -1332 0
-1331 -1333 0
-1331 -1334 0
-1331 -1335 0
-1332 -1333 0
-1332 -1334 0
-1332 -1335 0
-1333 -1334 0
-1333 -1335 0
-1334 -1335 0
1336 1337 1338 1339 1340 0
-1336 -1337 0
-1336 -1338 0
-1336 -1339 0
-1336 -1340 0
-1337 -1338 0
-1337 -1339 0
-1337 -1340 0
-1338 -1339 0
-1338 -1340 0
-1339 -1340 0
1341 1342 1343 1344 1345 0
-1341 -1342 0
-1341 -1343 0
-1341 -1344 0
-1341 -1345 0
-1342 -1343 0
-1342 -1344 0
-1342 -1345 0
-1343 -1344 0
-1343 -1345 0
-1344 -1345 0
1346 1347 1348 1349 1350 0
-1346 -1347 0
-1346 -1348 0
-1346 -1349 0
-1346 -1350 0
-1347 -1348 0
-1347 -1349 0
-1347 -1350 0
-1348 -1349 0
-1348 -1350 0
-1349 -1350 0
1351 1352 1353 1354 1355 0
-1351 -1352 0
-1351 -1353 0
-1351 -1354 0
-1351 -1355 0
-1352 -1353 0
-1352 -1354 0
-1352 -1355 0
-1353 -1354 0
-1353 -1355 0
-1354 -1355 0
1356 1357 1358 1359 1360 0
-1356 -1357 0
-1356 -1358 0
-1356 -1359 0
-1356 -1360 0
-1357 -1358 0
-1357 -1359 0
-1357 -1360 0
-1358 -1359 0
-1358 -1360 0
-1359 -1360 0
1361 1362 1363 1364 1365 0
-1361 -1362 0
-1361 -1363 0
-1361 -1364 0
-1361 -1365 0
-1362 -1363 0
-1362 -1364 0
-1362 -1365 0
-1363 -1364 0
-1363 -1365 0
-1364 -1365 0
1366 1367 1368 1369 1370 0
-1366 -1367 0
-1366 -1368 0
-1366 -1369 0
-1366 -1370 0
-1367 -1368 0
-1367 -1369 0
-1367 -1370 0
-1368 -1369 0
-1368 -1370 0
-1369 -1370 0
1371 1372 1373 1374 1375 0
-1371 -1372 0
-1371 -1373 0
-1371 -1374 0
-1371 -1375 0
-1372 -1373 0
-1372 -1374 0
-1372 -1375 0
-1373 -1374 0
-1373 -1375 0
-1374 -1375 0
1376 1377 1378 1379 1380 0
-1376 -1377 0
-1376 -1378 0
-1376 -1379 0
-1376 -1380 0
-1377 -1378 0
-1377 -1379 0
-1377 -1380 0
-1378 -1379 0
-1378 -1380 0
-1379 -1380 0
1381 1382 1383 1384 1385 0
-1381 -1382 0
-1381 -1383 0
-1381 -1384 0
-1381 -1385 0
-1382 -1383 0
-1382 -1384 0
-1382 -1385 0
-1383 -1384 0
-1383 -1385 0
-1384 -1385 0
1386 1387 1388 1389 1390 0
-1386 -1387 0
-1386 -1388 0
-1386 -1389 0
-1386 -1390 0
-1387 -1388 0
-1387 -1389 0
-1387 -1390 0
-1388 -1389 0
-1388 -1390 0
-1389 -1390 0
1391 1392 1393 1394 1395 0
-1391 -1392 0
-1391 -1393 0
-1391 -1394 0
-1391 -1395 0
-1392 -1393 0
-1392 -1394 0
-1392 -1395 0
-1393 -1394 0
-1393 -1395 0
-1394 -1395 0
1396 1397 1398 1399 1400 0
-1396 -1397 0
-1396 -1398 0
-1396 -1399 0
-1396 -1400 0
-1397 -1398 0
-1397 -1399 0
-1397 -1400 0
-1398 -1399 0
-1398 -1400 0
-1399 -1400 0
1401 1402 1403 1404 1405 0
-1401 -1402 0
-1401 -1403 0
-1401 -1404 0
-1401 -1405 0
-1402 -1403 0
-1402 -1404 0
-1402 -1405 0
-1403 -1404 0
-1403 -1405 0
-1404 -1405 0
1406 1407 1408 1409 1410 0
-1406 -1407 0
-1406 -1408 0
-1406 -1409 0
-1406 -1410 0
-1407 -1408 0
-1407 -1409 0
-1407 -1410 0
-1408 -1409 0
-1408 -1410 0
-1409 -1410 0
1411 1412 1413 1414 1415 0
-1411 -1412 0
-1411 -1413 0
-1411 -1414 0
-1411 -1415 0
-1412 -1413 0
-1412 -1414 0
-1412 -1415 0
-1413 -1414 0
-1413 -1415 0
-1414 -1415 0
1416 1417 1418 1419 1420 0
-1416 -1417 0
-1416 -1418 0
-1416 -1419 0
-1416 -1420 0
-1417 -1418 0
-1417 -1419 0
-1417 -1420 0
-1418 -1419 0
-1418 -1420 0
-1419 -1420 0
1421 1422 1423 1424 1425 0
-1421 -1422 0
-1421 -1423 0
-1421 -1424 0
-1421 -1425 0
-1422 -1423 0
-1422 -1424 0
-1422 -1425 0
-1423 -1424 0
-1423 -1425 0
-1424 -1425 0
1426 1427 1428 1429 1430 0
-1426 -1427 0
-1426 -1428 0
-1426 -1429 0
-1426 -1430 0
-1427 -1428 0
-1427 -1429 0
-1427 -1430 0
-1428 -1429 0
-1428 -1430 0
-1429 -1430 0
1431 1432 1433 1434 1435 0
-1431 -1432 0
-1431 -1433 0
-1431 -1434 0
-1431 -1435 0
-1432 -1433 0
-1432 -1434 0
-1432 -1435 0
-1433 -1434 0
-1433 -1435 0
-1434 -1435 0
1436 1437 1438 1439 1440 0
-1436 -1437 0
-1436 -1438 0
-1436 -1439 0
-1436 -1440 0
-1437 -1438 0
-1437 -1439 0
-1437 -1440 0
-1438 -1439 0
-1438 -1440 0
-1439 -1440 0
1441 1442 1443 1444 1445 0
-1441 -1442 0
-1441 -1443 0
-1441 -1444 0
-1441 -1445 0
-1442 -1443 0
-1442 -1444 0
-1442 -1445 0
-1443 -1444 0
-1443 -1445 0
-1444 -1445 0
1446 1447 1448 1449 1450 0
-1446 -1447 0
-1446 -1448 0
-1446 -1449 0
-1446 -1450 0
-1447 -1448 0
-1447 -1449 0
-1447 -1450 0
-1448 -1449 0
-1448 -1450 0
-1449 -1450 0
1451 1452 1453 1454 1455 0
-1451 -1452 0
-1451 -1453 0
-1451 -1454 0
-1451 -1455 0
-1452 -1453 0
-1452 -1454 0
-1452 -1455 0
-1453 -1454 0
-1453 -1455 0
-1454 -1455 0
1456 1457 1458 1459 1460 0
-1456 -1457 0
-1456 -1458 0
-1456 -1459 0
-1456 -1460 0
-1457 -1458 0
-1457 -1459 0
-1457 -1460 0
-1458 -1459 0
-1458 -1460 0
-1459 -1460 0
1461 1462 1463 1464 1465 0
-1461 -1462 0
-1461 -1463 0
-1461 -1464 0
-1461 -1465 0
-1462 -1463 0
-1462 -1464 0
-1462 -1465 0
-1463 -1464 0
-1463 -1465 0
-1464 -1465 0
1466 1467 1468 1469 1470 0
-1466 -1467 0
-1466 -1468 0
-1466 -1469 0
-1466 -1470 0
-1467 -1468 0
-1467 -1469 0
-1467 -1470 0
-1468 -1469 0
-1468 -1470 0
-1469 -1470 0
1471 1472 1473 1474 1475 0
-1471 -1472 0
-1471 -1473 0
-1471 -1474 0
-1471 -1475 0
-1472 -1473 0
-1472 -1474 0
-1472 -1475 0
-1473 -1474 0
-1473 -1475 0
-1474 -1475 0
1476 1477 1478 1479 1480 0
-1476 -1477 0
-1476 -1478 0
-1476 -1479 0
-1476 -1480 0
-1477 -1478 0
-1477 -1479 0
-1477 -1480 0
-1478 -1479 0
-1478 -1480 0
-1479 -1480 0
1481 1482 1483 1484 1485 0
-1481 -1482 0
-1481 -1483 0
-1481 -1484 0
-1481 -1485 0
-1482 -1483 0
-1482 -1484 0
-1482 -1485 0
-1483 -1484 0
-1483 -1485 0
-1484 -1485 0
1486 1487 1488 1489 1490 0
-1486 -1487 0
-1486 -1488 0
-1486 -1489 0
-1486 -1490 0
-1487 -1488 0
-1487 -1489 0
-1487 -1490 0
-1488 -1489 0
-1488 -1490 0
-1489 -1490 0
1491 1492 1493 1494 1495 0
-1491 -1492 0
-1491 -1493 0
-1491 -1494 0
-1491 -1495 0
-1492 -1493 0
-1492 -1494 0
-1492 -1495 0
-1493 -1494 0
-1493 -1495 0
-1494 -1495 0
1496 1497 1498 1499 1500 0
-1496 -1497 0
-1496 -1498 0
-1496 -1499 0
-1496 -1500 0
-1497 -1498 0
-1497 -1499 0
-1497 -1500 0
-1498 -1499 0
-1498 -1500 0
-1499 -1500 0
1501 1502 1503 1504 1505 0
-1501 -1502 0
-1501 -1503 0
-1501 -1504 0
-1501 -1505 0
-1502 -1503 0
-1502 -1504 0
-1502 -1505 0
-1503 -1504 0
-1503 -1505 0
-1504 -1505 0
1506 1507 1508 1509 1510 0
-1506 -1507 0
-1506 -1508 0
-1506 -1509 0
-1506 -1510 0
-1507 -1508 0
-1507 -1509 0
-1507 -1510 0
-1508 -1509 0
-1508 -1510 0
-1509 -1510 0
1511 1512 1513 1514 1515 0
-1511 -1512 0
-1511 -1513 0
-1511 -1514 0
-1511 -1515 0
-1512 -1513 0
-1512 -1514 0
-1512 -1515 0
-1513 -1514 0
-1513 -1515 0
-1514 -1515 0
1516 1517 1518 1519 1520 0
-1516 -1517 0
-1516 -1518 0
-1516 -1519 0
-1516 -1520 0
-1517 -1518 0
-1517 -1519 0
-1517 -1520 0
-1518 -1519 0
-1518 -1520 0
-1519 -1520 0
1521 1522 1523 1524 1525 0
-1521 -1522 0
-1521 -1523 0
-1521 -1524 0
-1521 -1525 0
-1522 -1523 0
-1522 -1524 0
-1522 -1525 0
-1523 -1524 0
-1523 -1525 0
-1524 -1525 0
1526 1527 1528 1529 1530 0
-1526 -1527 0
-1526 -1528 0
-1526 -1529 0
-1526 -1530 0
-1527 -1528 0
-1527 -1529 0
-1527 -1530 0
-1528 -1529 0
-1528 -1530 0
-1529 -1530 0
1531 1532 1533 1534 1535 0
-1531 -1532 0
-1531 -1533 0
-1531 -1534 0
-1531 -1535 0
-1532 -1533 0
-1532 -1534 0
-1532 -1535 0
-1533 -1534 0
-1533 -1535 0
-1534 -1535 0
1536 1537 1538 1539 1540 0
-1536 -1537 0
-1536 -1538 0
-1536 -1539 0
-1536 -1540 0
-1537 -1538 0
-1537 -1539 0
-1537 -1540 0
-1538 -1539 0
-1538 -1540 0
-1539 -1540 0
1541 1542 1543 1544 1545 0
-1541 -1542 0
-1541 -1543 0
-1541 -1544 0
-1541 -1545 0
-1542 -1543 0
-1542 -1544 0
-1542 -1545 0
-1543 -1544 0
-1543 -1545 0
-1544 -1545 0
1546 1547 1548 1549 1550 0
-1546 -1547 0
-1546 -1548 0
-1546 -1549 0
-1546 -1550 0
-1547 -1548 0
-1547 -1549 0
-1547 -1550 0
-1548 -1549 0
-1548 -1550 0
-1549 -1550 0
1551 1552 1553 1554 1555 0
-1551 -1552 0
-1551 -1553 0
-1551 -1554 0
-1551 -1555 0
-1552 -1553 0
-1552 -1554 0
-1552 -1555 0
-1553 -1554 0
-1553 -1555 0
-1554 -1555 0
1556 1557 1558 1559 1560 0
-1556 -1557 0
-1556 -1558 0
-1556 -1559 0
-1556 -1560 0
-1557 -1558 0
-1557 -1559 0
-1557 -1560 0
-1558 -1559 0
-1558 -1560 0
-1559 -1560 0
1561 1562 1563 1564 1565 0
-1561 -1562 0
-1561 -1563 0
-1561 -1564 0
-1561 -1565 0
-1562 -1563 0
-1562 -1564 0
-1562 -1565 0
-1563 -1564 0
-1563 -1565 0
-1564 -1565 0
1566 1567 1568 1569 1570 0
-1566 -1567 0
-1566 -1568 0
-1566 -1569 0
-1566 -1570 0
-1567 -1568 0
-1567 -1569 0
-1567 -1570 0
-1568 -1569 0
-1568 -1570 0
-1569 -1570 0
1571 1572 1573 1574 1575 0
-1571 -1572 0
-1571 -1573 0
-1571 -1574 0
-1571 -1575 0
-1572 -1573 0
-1572 -1574 0
-1572 -1575 0
-1573 -1574 0
-1573 -1575 0
-1574 -1575 0
1576 1577 1578 1579 1580 0
-1576 -1577 0
-1576 -1578 0
-1576 -1579 0
-1576 -1580 0
-1577 -1578 0
-1577 -1579 0
-1577 -1580 0
-1578 -1579 0
-1578 -1580 0
-1579 -1580 0
1581 1582 1583 1584 1585 0
-1581 -1582 0
-1581 -1583 0
-1581 -1584 0
-1581 -1585 0
-1582 -1583 0
-1582 -1584 0
-1582 -1585 0
-1583 -1584 0
-1583 -1585 0
-1584 -1585 0
1586 1587 1588 1589 1590 0
-1586 -1587 0
-1586 -1588 0
-1586 -1589 0
-1586 -1590 0
-1587 -1588 0
-1587 -1589 0
-1587 -1590 0
-1588 -1589 0
-1588 -1590 0
-1589 -1590 0
1591 1592 1593 1594 1595 0
-1591 -1592 0
-1591 -1593 0
-1591 -1594 0
-1591 -1595 0
-1592 -1593 0
-1592 -1594 0
-1592 -1595 0
-1593 -1594 0
-1593 -1595 0
-1594 -1595 0
1596 1597 1598 1599 1600 0
-1596 -1597 0
-1596 -1598 0
-1596 -1599 0
-1596 -1600 0
-1597 -1598 0
-1597 -1599 0
-1597 -1600 0
-1598 -1599 0
-1598 -1600 0
-1599 -1600 0
1601 1602 1603 1604 1605 0
-1601 -1602 0
-1601 -1603 0
-1601 -1604 0
-1601 -1605 0
-1602 -1603 0
-1602 -1604 0
-1602 -1605 0
-1603 -1604 0
-1603 -1605 0
-1604 -1605 0
1606 1607 1608 1609 1610 0
-1606 -1607 0
-1606 -1608 0
-1606 -1609 0
-1606 -1610 0
-1607 -1608 0
-1607 -1609 0
-1607 -1610 0
-1608 -1609 0
-1608 -1610 0
-1609 -1610 0
1611 1612 1613 1614 1615 0
-1611 -1612 0
-1611 -1613 0
-1611 -1614 0
-1611 -1615 0
-1612 -1613 0
-1612 -1614 0
-1612 -1615 0
-1613 -1614 0
-1613 -1615 0
-1614 -1615 0
1616 1617 1618 1619 1620 0
-1616 -1617 0
-1616 -1618 0
-1616 -1619 0
-1616 -1620 0
-1617 -1618 0
-1617 -1619 0
-1617 -1620 0
-1618 -1619 0
-1618 -1620 0
-1619 -1620 0
1621 1622 1623 1624 1625 0
-1621 -1622 0
-1621 -1623 0
-1621 -1624 0
-1621 -1625 0
-1622 -1623 0
-1622 -1624 0
-1622 -1625 0
-1623 -1624 0
-1623 -1625 0
-1624 -1625 0
1626 1627 1628 1629 1630 0
-1626 -1627 0
-1626 -1628 0
-1626 -1629 0
-1626 -1630 0
-1627 -1628 0
-1627 -1629 0
-1627 -1630 0
-1628 -1629 0
-1628 -1630 0
-1629 -1630 0
1631 1632 1633 1634 1635 0
-1631 -1632 0
-1631 -1633 0
-1631 -1634 0
-1631 -1635 0
-1632 -1633 0
-1632 -1634 0
-1632 -1635 0
-1633 -1634 0
-1633 -1635 0
-1634 -1635 0
1636 1637 1638 1639 1640 0
-1636 -1637 0
-1636 -1638 0
-1636 -1639 0
-1636 -1640 0
-1637 -1638 0
-1637 -1639 0
-1637 -1640 0
-1638 -1639 0
-1638 -1640 0
-1639 -1640 0
1641 1642 1643 1644 1645 0
-1641 -1642 0
-1641 -1643 0
-1641 -1644 0
-1641 -1645 0
-1642 -1643 0
-1642 -1644 0
-1642 -1645 0
-1643 -1644 0
-1643 -1645 0
-1644 -1645 0
1646 1647 1648 1649 1650 0
-1646 -1647 0
-1646 -1648 0
-1646 -1649 0
-1646 -1650 0
-1647 -1648 0
-1647 -1649 0
-1647 -1650 0
-1648 -1649 0
-1648 -1650 0
-1649 -1650 0
1651 1652 1653 1654 1655 0
-1651 -1652 0
-1651 -1653 0
-1651 -1654 0
-1651 -1655 0
-1652 -1653 0
-1652 -1654 0
-1652 -1655 0
-1653 -1654 0
-1653 -1655 0
-1654 -1655 0
1656 1657 1658 1659 1660 0
-1656 -1657 0
-1656 -1658 0
-1656 -1659 0
-1656 -1660 0
-1657 -1658 0
-1657 -1659 0
-1657 -1660 0
-1658 -1659 0
-1658 -1660 0
-1659 -1660 0
1661 1662 1663 1664 1665 0
-1661 -1662 0
-1661 -1663 0
-1661 -1664 0
-1661 -1665 0
-1662 -1663 0
-1662 -1664 0
-1662 -1665 0
-1663 -1664 0
-1663 -1665 0
-1664 -1665 0
1666 1667 1668 1669 1670 0
-1666 -1667 0
-1666 -1668 0
-1666 -1669 0
-1666 -1670 0
-1667 -1668 0
-1667 -1669 0
-1667 -1670 0
-1668 -1669 0
-1668 -1670 0
-1669 -1670 0
1671 1672 1673 1674 1675 0
-1671 -1672 0
-1671 -1673 0
-1671 -1674 0
-1671 -1675 0
-1672 -1673 0
-1672 -1674 0
-1672 -1675 0
-1673 -1674 0
-1673 -1675 0
-1674 -1675 0
1676 1677 1678 1679 1680 0
-1676 -1677 0
-1676 -1678 0
-1676 -1679 0
-1676 -1680 0
-1677 -1678 0
-1677 -1679 0
-1677 -1680 0
-1678 -1679 0
-1678 -1680 0
-1679 -1680 0
1681 1682 1683 1684 1685 0
-1681 -1682 0
-1681 -1683 0
-1681 -1684 0
-1681 -1685 0
-1682 -1683 0
-1682 -1684 0
-1682 -1685 0
-1683 -1684 0
-1683 -1685 0
-1684 -1685 0
1686 1687 1688 1689 1690 0
-1686 -1687 0
-1686 -1688 0
-1686 -1689 0
-1686 -1690 0
-1687 -1688 0
-1687 -1689 0
-1687 -1690 0
-1688 -1689 0
-1688 -1690 0
-1689 -1690 0
1691 1692 1693 1694 1695 0
-1691 -1692 0
-1691 -1693 0
-1691 -1694 0
-1691 -1695 0
-1692 -1693 0
-1692 -1694 0
-1692 -1695 0
-1693 -1694 0
-1693 -1695 0
-1694 -1695 0
1696 1697 1698 1699 1700 0
-1696 -1697 0
-1696 -1698 0
-1696 -1699 0
-1696 -1700 0
-1697 -1698 0
-1697 -1699 0
-1697 -1700 0
-1698 -1699 0
-1698 -1700 0
-1699 -1700 0
1701 1702 1703 1704 1705 0
-1701 -1702 0
-1701 -1703 0
-1701 -1704 0
-1701 -1705 0
-1702 -1703 0
-1702 -1704 0
-1702 -1705 0
-1703 -1704 0
-1703 -1705 0
-1704 -1705 0
1706 1707 1708 1709 1710 0
-1706 -1707 0
-1706 -1708 0
-1706 -1709 0
-1706 -1710 0
-1707 -1708 0
-1707 -1709 0
-1707 -1710 0
-1708 -1709 0
-1708 -1710 0
-1709 -1710 0
1711 1712 1713 1714 1715 0
-1711 -1712 0
-1711 -1713 0
-1711 -1714 0
-1711 -1715 0
-1712 -1713 0
-1712 -1714 0
-1712 -1715 0
-1713 -1714 0
-1713 -1715 0
-1714 -1715 0
1716 1717 1718 1719 1720 0
-1716 -1717 0
-1716 -1718 0
-1716 -1719 0
-1716 -1720 0
-1717 -1718 0
-1717 -1719 0
-1717 -1720 0
-1718 -1719 0
-1718 -1720 0
-1719 -1720 0
1721 1722 1723 1724 1725 0
-1721 -1722 0
-1721 -1723 0
-1721 -1724 0
-1721 -1725 0
-1722 -1723 0
-1722 -1724 0
-1722 -1725 0
-1723 -1724 0
-1723 -1725 0
-1724 -1725 0
1726 1727 1728 1729 1730 0
-1726 -1727 0
-1726 -1728 0
-1726 -1729 0
-1726 -1730 0
-1727 -1728 0
-1727 -1729 0
-1727 -1730 0
-1728 -1729 0
-1728 -1730 0
-1729 -1730 0
1731 1732 1733 1734 1735 0
-1731 -1732 0
-1731 -1733 0
-1731 -1734 0
-1731 -1735 0
-1732 -1733 0
-1732 -1734 0
-1732 -1735 0
-1733 -1734 0
-1733 -1735 0
-1734 -1735 0
1736 1737 1738 1739 1740 0
-1736 -1737 0
-1736 -1738 0
-1736 -1739 0
-1736 -1740 0
-1737 -1738 0
-1737 -1739 0
-1737 -1740 0
-1738 -1739 0
-1738 -1740 0
-1739 -1740 0
1741 1742 1743 1744 1745 0
-1741 -1742 0
-1741 -1743 0
-1741 -1744 0
-1741 -1745 0
-1742 -1743 0
-1742 -1744 0
-1742 -1745 0
-1743 -1744 0
-1743 -1745 0
-1744 -1745 0
1746 1747 1748 1749 1750 0
-1746 -1747 0
-1746 -1748 0
-1746 -1749 0
-1746 -1750 0
-1747 -1748 0
-1747 -1749 0
-1747 -1750 0
-1748 -1749 0
-1748 -1750 0
-1749 -1750 0
1751 1752 1753 1754 1755 0
-1751 -1752 0
-1751 -1753 0
-1751 -1754 0
-1751 -1755 0
-1752 -1753 0
-1752 -1754 0
-1752 -1755 0
-1753 -1754 0
-1753 -1755 0
-1754 -1755 0
1756 1757 1758 1759 1760 0
-1756 -1757 0
-1756 -1758 0
-1756 -1759 0
-1756 -1760 0
-1757 -1758 0
-1757 -1759 0
-1757 -1760 0
-1758 -1759 0
-1758 -1760 0
-1759 -1760 0
1761 1762 1763 1764 1765 0
-1761 -1762 0
-1761 -1763 0
-1761 -1764 0
-1761 -1765 0
-1762 -1763 0
-1762 -1764 0
-1762 -1765 0
-1763 -1764 0
-1763 -1765 0
-1764 -1765 0
1766 1767 1768 1769 1770 0
-1766 -1767 0
-1766 -1768 0
-1766 -1769 0
-1766 -1770 0
-1767 -1768 0
-1767 -1769 0
-1767 -1770 0
-1768 -1769 0
-1768 -1770 0
-1769 -1770 0
1771 1772 1773 1774 1775 0
-1771 -1772 0
-1771 -1773 0
-1771 -1774 0
-1771 -1775 0
-1772 -1773 0
-1772 -1774 0
-1772 -1775 0
-1773 -1774 0
-1773 -1775 0
-1774 -1775 0
1776 1777 1778 1779 1780 0
-1776 -1777 0
-1776 -1778 0
-1776 -1779 0
-1776 -1780 0
-1777 -1778 0
-1777 -1779 0
-1777 -1780 0
-1778 -1779 0
-1778 -1780 0
-1779 -1780 0
1781 1782 1783 1784 1785 0
-1781 -1782 0
-1781 -1783 0
-1781 -1784 0
-1781 -1785 0
-1782 -1783 0
-1782 -1784 0
-1782 -1785 0
-1783 -1784 0
-1783 -1785 0
-1784 -1785 0
1786 1787 1788 1789 1790 0
-1786 -1787 0
-1786 -1788 0
-1786 -1789 0
-1786 -1790 0
-1787 -1788 0
-1787 -1789 0
-1787 -1790 0
-1788 -1789 0
-1788 -1790 0
-1789 -1790 0
1791 1792 1793 1794 1795 0
-1791 -1792 0
-1791 -1793 0
-1791 -1794 0
-1791 -1795 0
-1792 -1793 0
-1792 -1794 0
-1792 -1795 0
-1793 -1794 0
-1793 -1795 0
-1794 -1795 0
1796 1797 1798 1799 1800 0
-1796 -1797 0
-1796 -1798 0
-1796 -1799 0
-1796 -1800 0
-1797 -1798 0
-1797 -1799 0
-1797 -1800 0
-1798 -1799 0
-1798 -1800 0
-1799 -1800 0
1801 1802 1803 1804 1805 0
-1801 -1802 0
-1801 -1803 0
-1801 -1804 0
-1801 -1805 0
-1802 -1803 0
-1802 -1804 0
-1802 -1805 0
-1803 -1804 0
-1803 -1805 0
-1804 -1805 0
1806 1807 1808 1809 1810 0
-1806 -1807 0
-1806 -1808 0
-1806 -1809 0
-1806 -1810 0
-1807 -1808 0
-1807 -1809 0
-1807 -1810 0
-1808 -1809 0
-1808 -1810 0
-1809 -1810 0
1811 1812 1813 1814 1815 0
-1811 -1812 0
-1811 -1813 0
-1811 -1814 0
-1811 -1815 0
-1812 -1813 0
-1812 -1814 0
-1812 -1815 0
-1813 -1814 0
-1813 -1815 0
-1814 -1815 0
1816 1817 1818 1819 1820 0
-1816 -1817 0
-1816 -1818 0
-1816 -1819 0
-1816 -1820 0
-1817 -1818 0
-1817 -1819 0
-1817 -1820 0
-1818 -1819 0
-1818 -1820 0
-1819 -1820 0
1821 1822 1823 1824 1825 0
-1821 -1822 0
-1821 -1823 0
-1821 -1824 0
-1821 -1825 0
-1822 -1823 0
-1822 -1824 0
-1822 -1825 0
-1823 -1824 0
-1823 -1825 0
-1824 -1825 0
1826 1827 1828 1829 1830 0
-1826 -1827 0
-1826 -1828 0
-1826 -1829 0
-1826 -1830 0
-1827 -1828 0
-1827 -1829 0
-1827 -1830 0
-1828 -1829 0
-1828 -1830 0
-1829 -1830 0
1831 1832 1833 1834 1835 0
-1831 -1832 0
-1831 -1833 0
-1831 -1834 0
-1831 -1835 0
-1832 -1833 0
-1832 -1834 0
-1832 -1835 0
-1833 -1834 0
-1833 -1835 0
-1834 -1835 0
1836 1837 1838 1839 1840 0
-1836 -1837 0
-1836 -1838 0
-1836 -1839 0
-1836 -1840 0
-1837 -1838 0
-1837 -1839 0
-1837 -1840 0
-1838 -1839 0
-1838 -1840 0
-1839 -1840 0
1841 1842 1843 1844 1845 0
-1841 -1842 0
-1841 -1843 0
-1841 -1844 0
-1841 -1845 0
-1842 -1843 0
-1842 -1844 0
-1842 -1845 0
-1843 -1844 0
-1843 -1845 0
-1844 -1845 0
1846 1847 1848 1849 1850 0
-1846 -1847 0
-1846 -1848 0
-1846 -1849 0
-1846 -1850 0
-1847 -1848 0
-1847 -1849 0
-1847 -1850 0
-1848 -1849 0
-1848 -1850 0
-1849 -1850 0
1851 1852 1853 1854 1855 0
-1851 -1852 0
-1851 -1853 0
-1851 -1854 0
-1851 -1855 0
-1852 -1853 0
-1852 -1854 0
-1852 -1855 0
-1853 -1854 0
-1853 -1855 0
-1854 -1855 0
1856 1857 1858 1859 1860 0
-1856 -1857 0
-1856 -1858 0
-1856 -1859 0
-1856 -1860 0
-1857 -1858 0
-1857 -1859 0
-1857 -1860 0
-1858 -1859 0
-1858 -1860 0
-1859 -1860 0
1861 1862 1863 1864 1865 0
-1861 -1862 0
-1861 -1863 0
-1861 -1864 0
-1861 -1865 0
-1862 -1863 0
-1862 -1864 0
-1862 -1865 0
-1863 -1864 0
-1863 -1865 0
-1864 -1865 0
1866 1867 1868 1869 1870 0
-1866 -1867 0
-1866 -1868 0
-1866 -1869 0
-1866 -1870 0
-1867 -1868 0
-1867 -1869 0
-1867 -1870 0
-1868 -1869 0
-1868 -1870 0
-1869 -1870 0
1871 1872 1873 1874 1875 0
-1871 -1872 0
-1871 -1873 0
-1871 -1874 0
-1871 -1875 0
-1872 -1873 0
-1872 -1874 0
-1872 -1875 0
-1873 -1874 0
-1873 -1875 0
-1874 -1875 0
1876 1877 1878 1879 1880 0
-1876 -1877 0
-1876 -1878 0
-1876 -1879 0
-1876 -1880 0
-1877 -1878 0
-1877 -1879 0
-1877 -1880 0
-1878 -1879 0
-1878 -1880 0
-1879 -1880 0
1881 1882 1883 1884 1885 0
-1881 -1882 0
-1881 -1883 0
-1881 -1884 0
-1881 -1885 0
-1882 -1883 0
-1882 -1884 0
-1882 -1885 0
-1883 -1884 0
-1883 -1885 0
-1884 -1885 0
1886 1887 1888 1889 1890 0
-1886 -1887 0
-1886 -1888 0
-1886 -1889 0
-1886 -1890 0
-1887 -1888 0
-1887 -1889 0
-1887 -1890 0
-1888 -1889 0
-1888 -1890 0
-1889 -1890 0
1891 1892 1893 1894 1895 0
-1891 -1892 0
-1891 -1893 0
-1891 -1894 0
-1891 -1895 0
-1892 -1893 0
-1892 -1894 0
-1892 -1895 0
-1893 -1894 0
-1893 -1895 0
-1894 -1895 0
1896 1897 1898 1899 1900 0
-1896 -1897 0
-1896 -1898 0
-1896 -1899 0
-1896 -1900 0
-1897 -1898 0
-1897 -1899 0
-1897 -1900 0
-1898 -1899 0
-1898 -1900 0
-1899 -1900 0
1901 1902 1903 1904 1905 0
-1901 -1902 0
-1901 -1903 0
-1901 -1904 0
-1901 -1905 0
-1902 -1903 0
-1902 -1904 0
-1902 -1905 0
-1903 -1904 0
-1903 -1905 0
-1904 -1905 0
1906 1907 1908 1909 1910 0
-1906 -1907 0
-1906 -1908 0
-1906 -1909 0
-1906 -1910 0
-1907 -1908 0
-1907 -1909 0
-1907 -1910 0
-1908 -1909 0
-1908 -1910 0
-1909 -1910 0
1911 1912 1913 1914 1915 0
-1911 -1912 0
-1911 -1913 0
-1911 -1914 0
-1911 -1915 0
-1912 -1913 0
-1912 -1914 0
-1912 -1915 0
-1913 -1914 0
-1913 -1915 0
-1914 -1915 0
1916 1917 1918 1919 1920 0
-1916 -1917 0
-1916 -1918 0
-1916 -1919 0
-1916 -1920 0
-1917 -1918 0
-1917 -1919 0
-1917 -1920 0
-1918 -1919 0
-1918 -1920 0
-1919 -1920 0
1921 1922 1923 1924 1925 0
-1921 -1922 0
-1921 -1923 0
-1921 -1924 0
-1921 -1925 0
-1922 -1923 0
-1922 -1924 0
-1922 -1925 0
-1923 -1924 0
-1923 -1925 0
-1924 -1925 0
1926 1927 1928 1929 1930 0
-1926 -1927 0
-1926 -1928 0
-1926 -1929 0
-1926 -1930 0
-1927 -1928 0
-1927 -1929 0
-1927 -1930 0
-1928 -1929 0
-1928 -1930 0
-1929 -1930 0
1931 1932 1933 1934 1935 0
-1931 -1932 0
-1931 -1933 0
-1931 -1934 0
-1931 -1935 0
-1932 -1933 0
-1932 -1934 0
-1932 -1935 0
-1933 -1934 0
-1933 -1935 0
-1934 -1935 0
1936 1937 1938 1939 1940 0
-1936 -1937 0
-1936 -1938 0
-1936 -1939 0
-1936 -1940 0
-1937 -1938 0
-1937 -1939 0
-1937 -1940 0
-1938 -1939 0
-1938 -1940 0
-1939 -1940 0
1941 1942 1943 1944 1945 0
-1941 -1942 0
-1941 -1943 0
-1941 -1944 0
-1941 -1945 0
-1942 -1943 0
-1942 -1944 0
-1942 -1945 0
-1943 -1944 0
-1943 -1945 0
-1944 -1945 0
1946 1947 1948 1949 1950 0
-1946 -1947 0
-1946 -1948 0
-1946 -1949 0
-1946 -1950 0
-1947 -1948 0
-1947 -1949 0
-1947 -1950 0
-1948 -1949 0
-1948 -1950 0
-1949 -1950 0
1951 1952 1953 1954 1955 0
-1951 -1952 0
-1951 -1953 0
-1951 -1954 0
-1951 -1955 0
-1952 -1953 0
-1952 -1954 0
-1952 -1955 0
-1953 -1954 0
-1953 -1955 0
-1954 -1955 0
1956 1957 1958 1959 1960 0
-1956 -1957 0
-1956 -1958 0
-1956 -1959 0
-1956 -1960 0
-1957 -1958 0
-1957 -1959 0
-1957 -1960 0
-1958 -1959 0
-1958 -1960 0
-1959 -1960 0
1961 1962 1963 1964 1965 0
-1961 -1962 0
-1961 -1963 0
-1961 -1964 0
-1961 -1965 0
-1962 -1963 0
-1962 -1964 0
-1962 -1965 0
-1963 -1964 0
-1963 -1965 0
-1964 -1965 0
-1 -6 0
-2 -7 0
-3 -8 0
-4 -9 0
-5 -10 0
-1 -11 0
-2 -12 0
-3 -13 0
-4 -14 0
-5 -15 0
-1 -21 0
-2 -22 0
-3 -23 0
-4 -24 0
-5 -25 0
-1 -31 0
-2 -32 0
-3 -33 0
-4 -34 0
-5 -35 0
-1 -86 0
-2 -87 0
-3 -88 0
-4 -89 0
-5 -90 0
-1 -91 0
-2 -92 0
-3 -93 0
-4 -94 0
-5 -95 0
-1 -96 0
-2 -97 0
-3 -98 0
-4 -99 0
-5 -100 0
-1 -106 0
-2 -107 0
-3 -108 0
-4 -109 0
-5 -110 0
-1 -111 0
-2 -112 0
-3 -113 0
-4 -114 0
-5 -115 0
-1 -116 0
-2 -117 0
-3 -118 0
-4 -119 0
-5 -120 0
-1 -121 0
-2 -122 0
-3 -123 0
-4 -124 0
-5 -125 0
-1 -126 0
-2 -127 0
-3 -128 0
-4 -129 0
-5 -130 0
-1 -131 0
-2 -132 0
-3 -133 0
-4 -134 0
-5 -135 0
-1 -136 0
-2 -137 0
-3 -138 0
-4 -139 0
-5 -140 0
-1 -141 0
-2 -142 0
-3 -143 0
-4 -144 0
-5 -145 0
-1 -806 0
-2 -807 0
-3 -808 0
-4 -809 0
-5 -810 0
-1 -816 0
-2 -817 0
-3 -818 0
-4 -819 0
-5 -820 0
-1 -826 0
-2 -827 0
-3 -828 0
-4 -829 0
-5 -830 0
-1 -831 0
-2 -832 0
-3 -833 0
-4 -834 0
-5 -835 0
-1 -1671 0
-2 -1672 0
-3 -1673 0
-4 -1674 0
-5 -1675 0
-1 -1676 0
-2 -1677 0
-3 -1678 0
-4 -1679 0
-5 -1680 0
-1 -1681 0
-2 -1682 0
-3 -1683 0
-4 -1684 0
-5 -1685 0
-1 -1686 0
-2 -1687 0
-3 -1688 0
-4 -1689 0
-5 -1690 0
-1 -1691 0
-2 -1692 0
-3 -1693 0
-4 -1694 0
-5 -1695 0
-1 -1696 0
-2 -1697 0
-3 -1698 0
-4 -1699 0
-5 -1700 0
-1 -1701 0
-2 -1702 0
-3 -1703 0
-4 -1704 0
-5 -1705 0
-1 -1706 0
-2 -1707 0
-3 -1708 0
-4 -1709 0
-5 -1710 0
-1 -1711 0
-2 -1712 0
-3 -1713 0
-4 -1714 0
-5 -1715 0
-1 -1716 0
-2 -1717 0
-3 -1718 0
-4 -1719 0
-5 -1720 0
-1 -1721 0
-2 -1722 0
-3 -1723 0
-4 -1724 0
-5 -1725 0
-1 -1726 0
-2 -1727 0
-3 -1728 0
-4 -1729 0
-5 -1730 0
-6 -26 0
-7 -27 0
-8 -28 0
-9 -29 0
-10 -30 0
-6 -31 0
-7 -32 0
-8 -33 0
-9 -34 0
-10 -35 0
-6 -341 0
-7 -342 0
-8 -343 0
-9 -344 0
-10 -345 0
-6 -386 0
-7 -387 0
-8 -388 0
-9 -389 0
-10 -390 0
-6 -421 0
-7 -422 0
-8 -423 0
-9 -424 0
-10 -425 0
-6 -556 0
-7 -557 0
-8 -558 0
-9 -559 0
-10 -560 0
-6 -1211 0
-7 -1212 0
-8 -1213 0
-9 -1214 0
-10 -1215 0
-6 -1346 0
-7 -1347 0
-8 -1348 0
-9 -1349 0
-10 -1350 0
-6 -1461 0
-7 -1462 0
-8 -1463 0
-9 -1464 0
-10 -1465 0
-6 -1541 0
-7 -1542 0
-8 -1543 0
-9 -1544 0
-10 -1545 0
-11 -21 0
-12 -22 0
-13 -23 0
-14 -24 0
-15 -25 0
-11 -31 0
-12 -32 0
-13 -33 0
-14 -34 0
-15 -35 0
-11 -246 0
-12 -247 0
-13 -248 0
-14 -249 0
-15 -250 0
-11 -446 0
-12 -447 0
-13 -448 0
-14 -449 0
-15 -450 0
-11 -561 0
-12 -562 0
-13 -563 0
-14 -564 0
-15 -565 0
-11 -616 0
-12 -617 0
-13 -618 0
-14 -619 0
-15 -620 0
-11 -1251 0
-12 -1252 0
-13 -1253 0
-14 -1254 0
-15 -1255 0
-11 -1316 0
-12 -1317 0
-13 -1318 0
-14 -1319 0
-15 -1320 0
-11 -1386 0
-12 -1387 0
-13 -1388 0
-14 -1389 0
-15 -1390 0
-11 -1531 0
-12 -1532 0
-13 -1533 0
-14 -1534 0
-15 -1535 0
-16 -236 0
-17 -237 0
-18 -238 0
-19 -239 0
-20 -240 0
-16 -361 0
-17 -362 0
-18 -363 0
-19 -364 0
-20 -365 0
-16 -416 0
-17 -417 0
-18 -418 0
-19 -419 0
-20 -420 0
-16 -451 0
-17 -452 0
-18 -453 0
-19 -454 0
-20 -455 0
-16 -586 0
-17 -587 0
-18 -588 0
-19 -589 0
-20 -590 0
-16 -621 0
-17 -622 0
-18 -623 0
-19 -624 0
-20 -625 0
-16 -1376 0
-17 -1377 0
-18 -1378 0
-19 -1379 0
-20 -1380 0
-16 -1546 0
-17 -1547 0
-18 -1548 0
-19 -1549 0
-20 -1550 0
-16 -1586 0
-17 -1587 0
-18 -1588 0
-19 -1589 0
-20 -1590 0
-21 -221 0
-22 -222 0
-23 -223 0
-24 -224 0
-25 -225 0
-21 -346 0
-22 -347 0
-23 -348 0
-24 -349 0
-25 -350 0
-21 -376 0
-22 -377 0
-23 -378 0
-24 -379 0
-25 -380 0
-21 -431 0
-22 -432 0
-23 -433 0
-24 -434 0
-25 -435 0
-21 -551 0
-22 -552 0
-23 -553 0
-24 -554 0
-25 -555 0
-21 -606 0
-22 -607 0
-23 -608 0
-24 -609 0
-25 -610 0
-21 -1196 0
-22 -1197 0
-23 -1198 0
-24 -1199 0
-25 -1200 0
-21 -1301 0
-22 -1302 0
-23 -1303 0
-24 -1304 0
-25 -1305 0
-21 -1371 0
-22 -1372 0
-23 -1373 0
-24 -1374 0
-25 -1375 0
-21 -1426 0
-22 -1427 0
-23 -1428 0
-24 -1429 0
-25 -1430 0
-21 -1526 0
-22 -1527 0
-23 -1528 0
-24 -1529 0
-25 -1530 0
-21 -1551 0
-22 -1552 0
-23 -1553 0
-24 -1554 0
-25 -1555 0
-26 -326 0
-27 -327 0
-28 -328 0
-29 -329 0
-30 -330 0
-26 -401 0
-27 -402 0
-28 -403 0
-29 -404 0
-30 -405 0
-26 -436 0
-27 -437 0
-28 -438 0
-29 -439 0
-30 -440 0
-26 -576 0
-27 -577 0
-28 -578 0
-29 -579 0
-30 -580 0
-26 -1236 0
-27 -1237 0
-28 -1238 0
-29 -1239 0
-30 -1240 0
-26 -1361 0
-27 -1362 0
-28 -1363 0
-29 -1364 0
-30 -1365 0
-31 -231 0
-32 -232 0
-33 -233 0
-34 -234 0
-35 -235 0
-31 -306 0
-32 -307 0
-33 -308 0
-34 -309 0
-35 -310 0
-31 -371 0
-32 -372 0
-33 -373 0
-34 -374 0
-35 -375 0
-31 -406 0
-32 -407 0
-33 -408 0
-34 -409 0
-35 -410 0
-31 -546 0
-32 -547 0
-33 -548 0
-34 -549 0
-35 -550 0
-31 -581 0
-32 -582 0
-33 -583 0
-34 -584 0
-35 -585 0
-31 -1216 0
-32 -1217 0
-33 -1218 0
-34 -1219 0
-35 -1220 0
-31 -1311 0
-32 -1312 0
-33 -1313 0
-34 -1314 0
-35 -1315 0
-31 -1331 0
-32 -1332 0
-33 -1333 0
-34 -1334 0
-35 -1335 0
-31 -1536 0
-32 -1537 0
-33 -1538 0
-34 -1539 0
-35 -1540 0
-36 -86 0
-37 -87 0
-38 -88 0
-39 -89 0
-40 -90 0
-36 -1441 0
-37 -1442 0
-38 -1443 0
-39 -1444 0
-40 -1445 0
-36 -1626 0
-37 -1627 0
-38 -1628 0
-39 -1629 0
-40 -1630 0
-41 -116 0
-42 -117 0
-43 -118 0
-44 -119 0
-45 -120 0
-41 -1051 0
-42 -1052 0
-43 -1053 0
-44 -1054 0
-45 -1055 0
-41 -1446 0
-42 -1447 0
-43 -1448 0
-44 -1449 0
-45 -1450 0
-41 -1631 0
-42 -1632 0
-43 -1633 0
-44 -1634 0
-45 -1635 0
-46 -91 0
-47 -92 0
-48 -93 0
-49 -94 0
-50 -95 0
-46 -1076 0
-47 -1077 0
-48 -1078 0
-49 -1079 0
-50 -1080 0
-46 -1441 0
-47 -1442 0
-48 -1443 0
-49 -1444 0
-50 -1445 0
-46 -1451 0
-47 -1452 0
-48 -1453 0
-49 -1454 0
-50 -1455 0
-51 -141 0
-52 -142 0
-53 -143 0
-54 -144 0
-55 -145 0
-51 -1071 0
-52 -1072 0
-53 -1073 0
-54 -1074 0
-55 -1075 0
-51 -1446 0
-52 -1447 0
-53 -1448 0
-54 -1449 0
-55 -1450 0
-51 -1456 0
-52 -1457 0
-53 -1458 0
-54 -1459 0
-55 -1460 0
-51 -1636 0
-52 -1637 0
-53 -1638 0
-54 -1639 0
-55 -1640 0
-56 -96 0
-57 -97 0
-58 -98 0
-59 -99 0
-60 -100 0
-56 -1096 0
-57 -1097 0
-58 -1098 0
-59 -1099 0
-60 -1100 0
-56 -1451 0
-57 -1452 0
-58 -1453 0
-59 -1454 0
-60 -1455 0
-56 -1641 0
-57 -1642 0
-58 -1643 0
-59 -1644 0
-60 -1645 0
-61 -1081 0
-62 -1082 0
-63 -1083 0
-64 -1084 0
-65 -1085 0
-61 -1466 0
-62 -1467 0
-63 -1468 0
-64 -1469 0
-65 -1470 0
-61 -1646 0
-62 -1647 0
-63 -1648 0
-64 -1649 0
-65 -1650 0
-66 -121 0
-67 -122 0
-68 -123 0
-69 -124 0
-70 -125 0
-66 -1131 0
-67 -1132 0
-68 -1133 0
-69 -1134 0
-70 -1135 0
-66 -1436 0
-67 -1437 0
-68 -1438 0
-69 -1439 0
-70 -1440 0
-66 -1481 0
-67 -1482 0
-68 -1483 0
-69 -1484 0
-70 -1485 0
-66 -1656 0
-67 -1657 0
-68 -1658 0
-69 -1659 0
-70 -1660 0
-71 -91 0
-72 -92 0
-73 -93 0
-74 -94 0
-75 -95 0
-71 -121 0
-72 -122 0
-73 -123 0
-74 -124 0
-75 -125 0
-71 -311 0
-72 -312 0
-73 -313 0
-74 -314 0
-75 -315 0
-71 -316 0
-72 -317 0
-73 -318 0
-74 -319 0
-75 -320 0
-71 -1566 0
-72 -1567 0
-73 -1568 0
-74 -1569 0
-75 -1570 0
-71 -1661 0
-72 -1662 0
-73 -1663 0
-74 -1664 0
-75 -1665 0
-76 -86 0
-77 -87 0
-78 -88 0
-79 -89 0
-80 -90 0
-76 -116 0
-77 -117 0
-78 -118 0
-79 -119 0
-80 -120 0
-76 -1206 0
-77 -1207 0
-78 -1208 0
-79 -1209 0
-80 -1210 0
-76 -1581 0
-77 -1582 0
-78 -1583 0
-79 -1584 0
-80 -1585 0
-81 -106 0
-82 -107 0
-83 -108 0
-84 -109 0
-85 -110 0
-81 -126 0
-82 -127 0
-83 -128 0
-84 -129 0
-85 -130 0
-81 -1241 0
-82 -1242 0
-83 -1243 0
-84 -1244 0
-85 -1245 0
-81 -1246 0
-82 -1247 0
-83 -1248 0
-84 -1249 0
-85 -1250 0
-81 -1391 0
-82 -1392 0
-83 -1393 0
-84 -1394 0
-85 -1395 0
-81 -1601 0
-82 -1602 0
-83 -1603 0
-84 -1604 0
-85 -1605 0
-86 -91 0
-87 -92 0
-88 -93 0
-89 -94 0
-90 -95 0
-86 -356 0
-87 -357 0
-88 -358 0
-89 -359 0
-90 -360 0
-86 -566 0
-87 -567 0
-88 -568 0
-89 -569 0
-90 -570 0
-86 -951 0
-87 -952 0
-88 -953 0
-89 -954 0
-90 -955 0
-86 -1206 0
-87 -1207 0
-88 -1208 0
-89 -1209 0
-90 -1210 0
-86 -1301 0
-87 -1302 0
-88 -1303 0
-89 -1304 0
-90 -1305 0
-86 -1431 0
-87 -1432 0
-88 -1433 0
-89 -1434 0
-90 -1435 0
-86 -1441 0
-87 -1442 0
-88 -1443 0
-89 -1444 0
-90 -1445 0
-86 -1531 0
-87 -1532 0
-88 -1533 0
-89 -1534 0
-90 -1535 0
-91 -96 0
-92 -97 0
-93 -98 0
-94 -99 0
-95 -100 0
-91 -146 0
-92 -147 0
-93 -148 0
-94 -149 0
-95 -150 0
-91 -236 0
-92 -237 0
-93 -238 0
-94 -239 0
-95 -240 0
-91 -311 0
-92 -312 0
-93 -313 0
-94 -314 0
-95 -315 0
-91 -411 0
-92 -412 0
-93 -413 0
-94 -414 0
-95 -415 0
-91 -551 0
-92 -552 0
-93 -553 0
-94 -554 0
-95 -555 0
-91 -901 0
-92 -902 0
-93 -903 0
-94 -904 0
-95 -905 0
-91 -1221 0
-92 -1222 0
-93 -1223 0
-94 -1224 0
-95 -1225 0
-91 -1316 0
-92 -1317 0
-93 -1318 0
-94 -1319 0
-95 -1320 0
-91 -1336 0
-92 -1337 0
-93 -1338 0
-94 -1339 0
-95 -1340 0
-91 -1441 0
-92 -1442 0
-93 -1443 0
-94 -1444 0
-95 -1445 0
-91 -1451 0
-92 -1452 0
-93 -1453 0
-94 -1454 0
-95 -1455 0
-91 -1491 0
-92 -1492 0
-93 -1493 0
-94 -1494 0
-95 -1495 0
-96 -101 0
-97 -102 0
-98 -103 0
-99 -104 0
-100 -105 0
-96 -156 0
-97 -157 0
-98 -158 0
-99 -159 0
-100 -160 0
-96 -316 0
-97 -317 0
-98 -318 0
-99 -319 0
-100 -320 0
-96 -426 0
-97 -427 0
-98 -428 0
-99 -429 0
-100 -430 0
-96 -596 0
-97 -597 0
-98 -598 0
-99 -599 0
-100 -600 0
-96 -731 0
-97 -732 0
-98 -733 0
-99 -734 0
-100 -735 0
-96 -911 0
-97 -912 0
-98 -913 0
-99 -914 0
-100 -915 0
-96 -1226 0
-97 -1227 0
-98 -1228 0
-99 -1229 0
-100 -1230 0
-96 -1541 0
-97 -1542 0
-98 -1543 0
-99 -1544 0
-100 -1545 0
-96 -1616 0
-97 -1617 0
-98 -1618 0
-99 -1619 0
-100 -1620 0
-101 -106 0
-102 -107 0
-103 -108 0
-104 -109 0
-105 -110 0
-101 -166 0
-102 -167 0
-103 -168 0
-104 -169 0
-105 -170 0
-101 -246 0
-102 -247 0
-103 -248 0
-104 -249 0
-105 -250 0
-101 -331 0
-102 -332 0
-103 -333 0
-104 -334 0
-105 -335 0
-101 -441 0
-102 -442 0
-103 -443 0
-104 -444 0
-105 -445 0
-101 -581 0
-102 -582 0
-103 -583 0
-104 -584 0
-105 -585 0
-101 -921 0
-102 -922 0
-103 -923 0
-104 -924 0
-105 -925 0
-101 -1041 0
-102 -1042 0
-103 -1043 0
-104 -1044 0
-105 -1045 0
-101 -1241 0
-102 -1242 0
-103 -1243 0
-104 -1244 0
-105 -1245 0
-101 -1346 0
-102 -1347 0
-103 -1348 0
-104 -1349 0
-105 -1350 0
-101 -1366 0
-102 -1367 0
-103 -1368 0
-104 -1369 0
-105 -1370 0
-101 -1496 0
-102 -1497 0
-103 -1498 0
-104 -1499 0
-105 -1500 0
-106 -176 0
-107 -177 0
-108 -178 0
-109 -179 0
-110 -180 0
-106 -336 0
-107 -337 0
-108 -338 0
-109 -339 0
-110 -340 0
-106 -366 0
-107 -367 0
-108 -368 0
-109 -369 0
-110 -370 0
-106 -591 0
-107 -592 0
-108 -593 0
-109 -594 0
-110 -595 0
-106 -626 0
-107 -627 0
-108 -628 0
-109 -629 0
-110 -630 0
-106 -741 0
-107 -742 0
-108 -743 0
-109 -744 0
-110 -745 0
-106 -931 0
-107 -932 0
-108 -933 0
-109 -934 0
-110 -935 0
-106 -1246 0
-107 -1247 0
-108 -1248 0
-109 -1249 0
-110 -1250 0
-106 -1361 0
-107 -1362 0
-108 -1363 0
-109 -1364 0
-110 -1365 0
-106 -1476 0
-107 -1477 0
-108 -1478 0
-109 -1479 0
-110 -1480 0
-106 -1526 0
-107 -1527 0
-108 -1528 0
-109 -1529 0
-110 -1530 0
-111 -186 0
-112 -187 0
-113 -188 0
-114 -189 0
-115 -190 0
-111 -226 0
-112 -227 0
-113 -228 0
-114 -229 0
-115 -230 0
-111 -351 0
-112 -352 0
-113 -353 0
-114 -354 0
-115 -355 0
-111 -611 0
-112 -612 0
-113 -613 0
-114 -614 0
-115 -615 0
-111 -941 0
-112 -942 0
-113 -943 0
-114 -944 0
-115 -945 0
-111 -1201 0
-112 -1202 0
-113 -1203 0
-114 -1204 0
-115 -1205 0
-111 -1306 0
-112 -1307 0
-113 -1308 0
-114 -1309 0
-115 -1310 0
-111 -1376 0
-112 -1377 0
-113 -1378 0
-114 -1379 0
-115 -1380 0
-111 -1431 0
-112 -1432 0
-113 -1433 0
-114 -1434 0
-115 -1435 0
-111 -1506 0
-112 -1507 0
-113 -1508 0
-114 -1509 0
-115 -1510 0
-111 -1611 0
-112 -1612 0
-113 -1613 0
-114 -1614 0
-115 -1615 0
-116 -121 0
-117 -122 0
-118 -123 0
-119 -124 0
-120 -125 0
-116 -141 0
-117 -142 0
-118 -143 0
-119 -144 0
-120 -145 0
-116 -171 0
-117 -172 0
-118 -173 0
-119 -174 0
-120 -175 0
-116 -331 0
-117 -332 0
-118 -333 0
-119 -334 0
-120 -335 0
-116 -366 0
-117 -367 0
-118 -368 0
-119 -369 0
-120 -370 0
-116 -541 0
-117 -542 0
-118 -543 0
-119 -544 0
-120 -545 0
-116 -576 0
-117 -577 0
-118 -578 0
-119 -579 0
-120 -580 0
-116 -721 0
-117 -722 0
-118 -723 0
-119 -724 0
-120 -725 0
-116 -916 0
-117 -917 0
-118 -918 0
-119 -919 0
-120 -920 0
-116 -1201 0
-117 -1202 0
-118 -1203 0
-119 -1204 0
-120 -1205 0
-116 -1436 0
-117 -1437 0
-118 -1438 0
-119 -1439 0
-120 -1440 0
-116 -1536 0
-117 -1537 0
-118 -1538 0
-119 -1539 0
-120 -1540 0
-121 -126 0
-122 -127 0
-123 -128 0
-124 -129 0
-125 -130 0
-121 -161 0
-122 -162 0
-123 -163 0
-124 -164 0
-125 -165 0
-121 -241 0
-122 -242 0
-123 -243 0
-124 -244 0
-125 -245 0
-121 -316 0
-122 -317 0
-123 -318 0
-124 -319 0
-125 -320 0
-121 -441 0
-122 -442 0
-123 -443 0
-124 -444 0
-125 -445 0
-121 -556 0
-122 -557 0
-123 -558 0
-124 -559 0
-125 -560 0
-121 -906 0
-122 -907 0
-123 -908 0
-124 -909 0
-125 -910 0
-121 -1246 0
-122 -1247 0
-123 -1248 0
-124 -1249 0
-125 -1250 0
-121 -1381 0
-122 -1382 0
-123 -1383 0
-124 -1384 0
-125 -1385 0
-121 -1436 0
-122 -1437 0
-123 -1438 0
-124 -1439 0
-125 -1440 0
-121 -1481 0
-122 -1482 0
-123 -1483 0
-124 -1484 0
-125 -1485 0
-121 -1486 0
-122 -1487 0
-123 -1488 0
-124 -1489 0
-125 -1490 0
-126 -131 0
-127 -132 0
-128 -133 0
-129 -134 0
-130 -135 0
-126 -151 0
-127 -152 0
-128 -153 0
-129 -154 0
-130 -155 0
-126 -311 0
-127 -312 0
-128 -313 0
-129 -314 0
-130 -315 0
-126 -546 0
-127 -547 0
-128 -548 0
-129 -549 0
-130 -550 0
-126 -601 0
-127 -602 0
-128 -603 0
-129 -604 0
-130 -605 0
-126 -736 0
-127 -737 0
-128 -738 0
-129 -739 0
-130 -740 0
-126 -896 0
-127 -897 0
-128 -898 0
-129 -899 0
-130 -900 0
-126 -1241 0
-127 -1242 0
-128 -1243 0
-129 -1244 0
-130 -1245 0
-126 -1386 0
-127 -1387 0
-128 -1388 0
-129 -1389 0
-130 -1390 0
-126 -1471 0
-127 -1472 0
-128 -1473 0
-129 -1474 0
-130 -1475 0
-126 -1481 0
-127 -1482 0
-128 -1483 0
-129 -1484 0
-130 -1485 0
-126 -1551 0
-127 -1552 0
-128 -1553 0
-129 -1554 0
-130 -1555 0
-126 -1586 0
-127 -1587 0
-128 -1588 0
-129 -1589 0
-130 -1590 0
-131 -136 0
-132 -137 0
-133 -138 0
-134 -139 0
-135 -140 0
-131 -201 0
-132 -202 0
-133 -203 0
-134 -204 0
-135 -205 0
-131 -231 0
-132 -232 0
-133 -233 0
-134 -234 0
-135 -235 0
-131 -356 0
-132 -357 0
-133 -358 0
-134 -359 0
-135 -360 0
-131 -616 0
-132 -617 0
-133 -618 0
-134 -619 0
-135 -620 0
-131 -946 0
-132 -947 0
-133 -948 0
-134 -949 0
-135 -950 0
-131 -1226 0
-132 -1227 0
-133 -1228 0
-134 -1229 0
-135 -1230 0
-131 -1351 0
-132 -1352 0
-133 -1353 0
-134 -1354 0
-135 -1355 0
-131 -1371 0
-132 -1372 0
-133 -1373 0
-134 -1374 0
-135 -1375 0
-131 -1466 0
-132 -1467 0
-133 -1468 0
-134 -1469 0
-135 -1470 0
-131 -1471 0
-132 -1472 0
-133 -1473 0
-134 -1474 0
-135 -1475 0
-131 -1501 0
-132 -1502 0
-133 -1503 0
-134 -1504 0
-135 -1505 0
-131 -1556 0
-132 -1557 0
-133 -1558 0
-134 -1559 0
-135 -1560 0
-136 -191 0
-137 -192 0
-138 -193 0
-139 -194 0
-140 -195 0
-136 -351 0
-137 -352 0
-138 -353 0
-139 -354 0
-140 -355 0
-136 -396 0
-137 -397 0
-138 -398 0
-139 -399 0
-140 -400 0
-136 -571 0
-137 -572 0
-138 -573 0
-139 -574 0
-140 -575 0
-136 -606 0
-137 -607 0
-138 -608 0
-139 -609 0
-140 -610 0
-136 -726 0
-137 -727 0
-138 -728 0
-139 -729 0
-140 -730 0
-136 -936 0
-137 -937 0
-138 -938 0
-139 -939 0
-140 -940 0
-136 -1221 0
-137 -1222 0
-138 -1223 0
-139 -1224 0
-140 -1225 0
-136 -1356 0
-137 -1357 0
-138 -1358 0
-139 -1359 0
-140 -1360 0
-136 -1466 0
-137 -1467 0
-138 -1468 0
-139 -1469 0
-140 -1470 0
-141 -181 0
-142 -182 0
-143 -183 0
-144 -184 0
-145 -185 0
-141 -336 0
-142 -337 0
-143 -338 0
-144 -339 0
-145 -340 0
-141 -381 0
-142 -382 0
-143 -383 0
-144 -384 0
-145 -385 0
-141 -586 0
-142 -587 0
-143 -588 0
-144 -589 0
-145 -590 0
-141 -1321 0
-142 -1322 0
-143 -1323 0
-144 -1324 0
-145 -1325 0
-141 -1341 0
-142 -1342 0
-143 -1343 0
-144 -1344 0
-145 -1345 0
-141 -1446 0
-142 -1447 0
-143 -1448 0
-144 -1449 0
-145 -1450 0
-146 -676 0
-147 -677 0
-148 -678 0
-149 -679 0
-150 -680 0
-146 -681 0
-147 -682 0
-148 -683 0
-149 -684 0
-150 -685 0
-146 -711 0
-147 -712 0
-148 -713 0
-149 -714 0
-150 -715 0
-146 -731 0
-147 -732 0
-148 -733 0
-149 -734 0
-150 -735 0
-146 -766 0
-147 -767 0
-148 -768 0
-149 -769 0
-150 -770 0
-146 -786 0
-147 -787 0
-148 -788 0
-149 -789 0
-150 -790 0
-146 -826 0
-147 -827 0
-148 -828 0
-149 -829 0
-150 -830 0
-146 -846 0
-147 -847 0
-148 -848 0
-149 -849 0
-150 -850 0
-146 -886 0
-147 -887 0
-148 -888 0
-149 -889 0
-150 -890 0
-146 -901 0
-147 -902 0
-148 -903 0
-149 -904 0
-150 -905 0
-146 -951 0
-147 -952 0
-148 -953 0
-149 -954 0
-150 -955 0
-146 -966 0
-147 -967 0
-148 -968 0
-149 -969 0
-150 -970 0
-146 -1566 0
-147 -1567 0
-148 -1568 0
-149 -1569 0
-150 -1570 0
-151 -736 0
-152 -737 0
-153 -738 0
-154 -739 0
-155 -740 0
-151 -771 0
-152 -772 0
-153 -773 0
-154 -774 0
-155 -775 0
-151 -791 0
-152 -792 0
-153 -793 0
-154 -794 0
-155 -795 0
-151 -851 0
-152 -852 0
-153 -853 0
-154 -854 0
-155 -855 0
-151 -891 0
-152 -892 0
-153 -893 0
-154 -894 0
-155 -895 0
-151 -896 0
-152 -897 0
-153 -898 0
-154 -899 0
-155 -900 0
-151 -906 0
-152 -907 0
-153 -908 0
-154 -909 0
-155 -910 0
-151 -961 0
-152 -962 0
-153 -963 0
-154 -964 0
-155 -965 0
-151 -971 0
-152 -972 0
-153 -973 0
-154 -974 0
-155 -975 0
-156 -731 0
-157 -732 0
-158 -733 0
-159 -734 0
-160 -735 0
-156 -776 0
-157 -777 0
-158 -778 0
-159 -779 0
-160 -780 0
-156 -796 0
-157 -797 0
-158 -798 0
-159 -799 0
-160 -800 0
-156 -836 0
-157 -837 0
-158 -838 0
-159 -839 0
-160 -840 0
-156 -856 0
-157 -857 0
-158 -858 0
-159 -859 0
-160 -860 0
-156 -901 0
-157 -902 0
-158 -903 0
-159 -904 0
-160 -905 0
-156 -911 0
-157 -912 0
-158 -913 0
-159 -914 0
-160 -915 0
-156 -971 0
-157 -972 0
-158 -973 0
-159 -974 0
-160 -975 0
-156 -981 0
-157 -982 0
-158 -983 0
-159 -984 0
-160 -985 0
-161 -686 0
-162 -687 0
-163 -688 0
-164 -689 0
-165 -690 0
-161 -691 0
-162 -692 0
-163 -693 0
-164 -694 0
-165 -695 0
-161 -736 0
-162 -737 0
-163 -738 0
-164 -739 0
-165 -740 0
-161 -781 0
-162 -782 0
-163 -783 0
-164 -784 0
-165 -785 0
-161 -801 0
-162 -802 0
-163 -803 0
-164 -804 0
-165 -805 0
-161 -821 0
-162 -822 0
-163 -823 0
-164 -824 0
-165 -825 0
-161 -841 0
-162 -842 0
-163 -843 0
-164 -844 0
-165 -845 0
-161 -861 0
-162 -862 0
-163 -863 0
-164 -864 0
-165 -865 0
-161 -906 0
-162 -907 0
-163 -908 0
-164 -909 0
-165 -910 0
-161 -916 0
-162 -917 0
-163 -918 0
-164 -919 0
-165 -920 0
-161 -976 0
-162 -977 0
-163 -978 0
-164 -979 0
-165 -980 0
-161 -986 0
-162 -987 0
-163 -988 0
-164 -989 0
-165 -990 0
-166 -696 0
-167 -697 0
-168 -698 0
-169 -699 0
-170 -700 0
-166 -701 0
-167 -702 0
-168 -703 0
-169 -704 0
-170 -705 0
-166 -716 0
-167 -717 0
-168 -718 0
-169 -719 0
-170 -720 0
-166 -741 0
-167 -742 0
-168 -743 0
-169 -744 0
-170 -745 0
-166 -746 0
-167 -747 0
-168 -748 0
-169 -749 0
-170 -750 0
-166 -786 0
-167 -787 0
-168 -788 0
-169 -789 0
-170 -790 0
-166 -806 0
-167 -807 0
-168 -808 0
-169 -809 0
-170 -810 0
-166 -846 0
-167 -847 0
-168 -848 0
-169 -849 0
-170 -850 0
-166 -866 0
-167 -867 0
-168 -868 0
-169 -869 0
-170 -870 0
-166 -911 0
-167 -912 0
-168 -913 0
-169 -914 0
-170 -915 0
-166 -921 0
-167 -922 0
-168 -923 0
-169 -924 0
-170 -925 0
-166 -1621 0
-167 -1622 0
-168 -1623 0
-169 -1624 0
-170 -1625 0
-171 -721 0
-172 -722 0
-173 -723 0
-174 -724 0
-175 -725 0
-171 -751 0
-172 -752 0
-173 -753 0
-174 -754 0
-175 -755 0
-171 -791 0
-172 -792 0
-173 -793 0
-174 -794 0
-175 -795 0
-171 -851 0
-172 -852 0
-173 -853 0
-174 -854 0
-175 -855 0
-171 -871 0
-172 -872 0
-173 -873 0
-174 -874 0
-175 -875 0
-171 -916 0
-172 -917 0
-173 -918 0
-174 -919 0
-175 -920 0
-171 -926 0
-172 -927 0
-173 -928 0
-174 -929 0
-175 -930 0
-171 -991 0
-172 -992 0
-173 -993 0
-174 -994 0
-175 -995 0
-171 -996 0
-172 -997 0
-173 -998 0
-174 -999 0
-175 -1000 0
-176 -741 0
-177 -742 0
-178 -743 0
-179 -744 0
-180 -745 0
-176 -756 0
-177 -757 0
-178 -758 0
-179 -759 0
-180 -760 0
-176 -796 0
-177 -797 0
-178 -798 0
-179 -799 0
-180 -800 0
-176 -921 0
-177 -922 0
-178 -923 0
-179 -924 0
-180 -925 0
-176 -931 0
-177 -932 0
-178 -933 0
-179 -934 0
-180 -935 0
-176 -996 0
-177 -997 0
-178 -998 0
-179 -999 0
-180 -1000 0
-176 -1006 0
-177 -1007 0
-178 -1008 0
-179 -1009 0
-180 -1010 0
-181 -656 0
-182 -657 0
-183 -658 0
-184 -659 0
-185 -660 0
-181 -661 0
-182 -662 0
-183 -663 0
-184 -664 0
-185 -665 0
-181 -706 0
-182 -707 0
-183 -708 0
-184 -709 0
-185 -710 0
-181 -721 0
-182 -722 0
-183 -723 0
-184 -724 0
-185 -725 0
-181 -801 0
-182 -802 0
-183 -803 0
-184 -804 0
-185 -805 0
-181 -831 0
-182 -832 0
-183 -833 0
-184 -834 0
-185 -835 0
-181 -861 0
-182 -862 0
-183 -863 0
-184 -864 0
-185 -865 0
-181 -881 0
-182 -882 0
-183 -883 0
-184 -884 0
-185 -885 0
-181 -926 0
-182 -927 0
-183 -928 0
-184 -929 0
-185 -930 0
-181 -936 0
-182 -937 0
-183 -938 0
-184 -939 0
-185 -940 0
-181 -1011 0
-182 -1012 0
-183 -1013 0
-184 -1014 0
-185 -1015 0
-186 -666 0
-187 -667 0
-188 -668 0
-189 -669 0
-190 -670 0
-186 -706 0
-187 -707 0
-188 -708 0
-189 -709 0
-190 -710 0
-186 -766 0
-187 -767 0
-188 -768 0
-189 -769 0
-190 -770 0
-186 -816 0
-187 -817 0
-188 -818 0
-189 -819 0
-190 -820 0
-186 -866 0
-187 -867 0
-188 -868 0
-189 -869 0
-190 -870 0
-186 -931 0
-187 -932 0
-188 -933 0
-189 -934 0
-190 -935 0
-186 -941 0
-187 -942 0
-188 -943 0
-189 -944 0
-190 -945 0
-186 -1011 0
-187 -1012 0
-188 -1013 0
-189 -1014 0
-190 -1015 0
-186 -1021 0
-187 -1022 0
-188 -1023 0
-189 -1024 0
-190 -1025 0
-191 -726 0
-192 -727 0
-193 -728 0
-194 -729 0
-195 -730 0
-191 -751 0
-192 -752 0
-193 -753 0
-194 -754 0
-195 -755 0
-191 -771 0
-192 -772 0
-193 -773 0
-194 -774 0
-195 -775 0
-191 -871 0
-192 -872 0
-193 -873 0
-194 -874 0
-195 -875 0
-191 -891 0
-192 -892 0
-193 -893 0
-194 -894 0
-195 -895 0
-191 -936 0
-192 -937 0
-193 -938 0
-194 -939 0
-195 -940 0
-191 -1026 0
-192 -1027 0
-193 -1028 0
-194 -1029 0
-195 -1030 0
-196 -756 0
-197 -757 0
-198 -758 0
-199 -759 0
-200 -760 0
-196 -836 0
-197 -837 0
-198 -838 0
-199 -839 0
-200 -840 0
-196 -876 0
-197 -877 0
-198 -878 0
-199 -879 0
-200 -880 0
-196 -951 0
-197 -952 0
-198 -953 0
-199 -954 0
-200 -955 0
-196 -1036 0
-197 -1037 0
-198 -1038 0
-199 -1039 0
-200 -1040 0
-201 -671 0
-202 -672 0
-203 -673 0
-204 -674 0
-205 -675 0
-201 -711 0
-202 -712 0
-203 -713 0
-204 -714 0
-205 -715 0
-201 -726 0
-202 -727 0
-203 -728 0
-204 -729 0
-205 -730 0
-201 -761 0
-202 -762 0
-203 -763 0
-204 -764 0
-205 -765 0
-201 -781 0
-202 -782 0
-203 -783 0
-204 -784 0
-205 -785 0
-201 -811 0
-202 -812 0
-203 -813 0
-204 -814 0
-205 -815 0
-201 -841 0
-202 -842 0
-203 -843 0
-204 -844 0
-205 -845 0
-201 -881 0
-202 -882 0
-203 -883 0
-204 -884 0
-205 -885 0
-201 -896 0
-202 -897 0
-203 -898 0
-204 -899 0
-205 -900 0
-201 -946 0
-202 -947 0
-203 -948 0
-204 -949 0
-205 -950 0
-201 -956 0
-202 -957 0
-203 -958 0
-204 -959 0
-205 -960 0
-201 -1031 0
-202 -1032 0
-203 -1033 0
-204 -1034 0
-205 -1035 0
-206 -601 0
-207 -602 0
-208 -603 0
-209 -604 0
-210 -605 0
-206 -646 0
-207 -647 0
-208 -648 0
-209 -649 0
-210 -650 0
-206 -896 0
-207 -897 0
-208 -898 0
-209 -899 0
-210 -900 0
-206 -911 0
-207 -912 0
-208 -913 0
-209 -914 0
-210 -915 0
-206 -1566 0
-207 -1567 0
-208 -1568 0
-209 -1569 0
-210 -1570 0
-211 -541 0
-212 -542 0
-213 -543 0
-214 -544 0
-215 -545 0
-211 -626 0
-212 -627 0
-213 -628 0
-214 -629 0
-215 -630 0
-211 -651 0
-212 -652 0
-213 -653 0
-214 -654 0
-215 -655 0
-211 -706 0
-212 -707 0
-213 -708 0
-214 -709 0
-215 -710 0
-211 -716 0
-212 -717 0
-213 -718 0
-214 -719 0
-215 -720 0
-211 -916 0
-212 -917 0
-213 -918 0
-214 -919 0
-215 -920 0
-216 -566 0
-217 -567 0
-218 -568 0
-219 -569 0
-220 -570 0
-216 -571 0
-217 -572 0
-218 -573 0
-219 -574 0
-220 -575 0
-216 -631 0
-217 -632 0
-218 -633 0
-219 -634 0
-220 -635 0
-216 -936 0
-217 -937 0
-218 -938 0
-219 -939 0
-220 -940 0
-216 -951 0
-217 -952 0
-218 -953 0
-219 -954 0
-220 -955 0
-221 -521 0
-222 -522 0
-223 -523 0
-224 -524 0
-225 -525 0
-221 -586 0
-222 -587 0
-223 -588 0
-224 -589 0
-225 -590 0
-221 -606 0
-222 -607 0
-223 -608 0
-224 -609 0
-225 -610 0
-221 -956 0
-222 -957 0
-223 -958 0
-224 -959 0
-225 -960 0
-221 -981 0
-222 -982 0
-223 -983 0
-224 -984 0
-225 -985 0
-221 -1051 0
-222 -1052 0
-223 -1053 0
-224 -1054 0
-225 -1055 0
-221 -1056 0
-222 -1057 0
-223 -1058 0
-224 -1059 0
-225 -1060 0
-226 -516 0
-227 -517 0
-228 -518 0
-229 -519 0
-230 -520 0
-226 -591 0
-227 -592 0
-228 -593 0
-229 -594 0
-230 -595 0
-226 -611 0
-227 -612 0
-228 -613 0
-229 -614 0
-230 -615 0
-226 -696 0
-227 -697 0
-228 -698 0
-229 -699 0
-230 -700 0
-226 -961 0
-227 -962 0
-228 -963 0
-229 -964 0
-230 -965 0
-226 -1061 0
-227 -1062 0
-228 -1063 0
-229 -1064 0
-230 -1065 0
-226 -1066 0
-227 -1067 0
-228 -1068 0
-229 -1069 0
-230 -1070 0
-231 -481 0
-232 -482 0
-233 -483 0
-234 -484 0
-235 -485 0
-231 -546 0
-232 -547 0
-233 -548 0
-234 -549 0
-235 -550 0
-231 -616 0
-232 -617 0
-233 -618 0
-234 -619 0
-235 -620 0
-231 -691 0
-232 -692 0
-233 -693 0
-234 -694 0
-235 -695 0
-231 -986 0
-232 -987 0
-233 -988 0
-234 -989 0
-235 -990 0
-231 -1006 0
-232 -1007 0
-233 -1008 0
-234 -1009 0
-235 -1010 0
-236 -551 0
-237 -552 0
-238 -553 0
-239 -554 0
-240 -555 0
-236 -621 0
-237 -622 0
-238 -623 0
-239 -624 0
-240 -625 0
-236 -991 0
-237 -992 0
-238 -993 0
-239 -994 0
-240 -995 0
-236 -1011 0
-237 -1012 0
-238 -1013 0
-239 -1014 0
-240 -1015 0
-236 -1091 0
-237 -1092 0
-238 -1093 0
-239 -1094 0
-240 -1095 0
-241 -501 0
-242 -502 0
-243 -503 0
-244 -504 0
-245 -505 0
-241 -556 0
-242 -557 0
-243 -558 0
-244 -559 0
-245 -560 0
-241 -576 0
-242 -577 0
-243 -578 0
-244 -579 0
-245 -580 0
-241 -661 0
-242 -662 0
-243 -663 0
-244 -664 0
-245 -665 0
-241 -1011 0
-242 -1012 0
-243 -1013 0
-244 -1014 0
-245 -1015 0
-241 -1036 0
-242 -1037 0
-243 -1038 0
-244 -1039 0
-245 -1040 0
-241 -1111 0
-242 -1112 0
-243 -1113 0
-244 -1114 0
-245 -1115 0
-241 -1116 0
-242 -1117 0
-243 -1118 0
-244 -1119 0
-245 -1120 0
-241 -1561 0
-242 -1562 0
-243 -1563 0
-244 -1564 0
-245 -1565 0
-246 -496 0
-247 -497 0
-248 -498 0
-249 -499 0
-250 -500 0
-246 -561 0
-247 -562 0
-248 -563 0
-249 -564 0
-250 -565 0
-246 -676 0
-247 -677 0
-248 -678 0
-249 -679 0
-250 -680 0
-246 -956 0
-247 -957 0
-248 -958 0
-249 -959 0
-250 -960 0
-246 -1016 0
-247 -1017 0
-248 -1018 0
-249 -1019 0
-250 -1020 0
-246 -1041 0
-247 -1042 0
-248 -1043 0
-249 -1044 0
-250 -1045 0
-246 -1121 0
-247 -1122 0
-248 -1123 0
-249 -1124 0
-250 -1125 0
-246 -1126 0
-247 -1127 0
-248 -1128 0
-249 -1129 0
-250 -1130 0
-246 -1621 0
-247 -1622 0
-248 -1623 0
-249 -1624 0
-250 -1625 0
-251 -411 0
-252 -412 0
-253 -413 0
-254 -414 0
-255 -415 0
-251 -416 0
-252 -417 0
-253 -418 0
-254 -419 0
-255 -420 0
-251 -501 0
-252 -502 0
-253 -503 0
-254 -504 0
-255 -505 0
-251 -521 0
-252 -522 0
-253 -523 0
-254 -524 0
-255 -525 0
-251 -686 0
-252 -687 0
-253 -688 0
-254 -689 0
-255 -690 0
-251 -761 0
-252 -762 0
-253 -763 0
-254 -764 0
-255 -765 0
-251 -791 0
-252 -792 0
-253 -793 0
-254 -794 0
-255 -795 0
-251 -906 0
-252 -907 0
-253 -908 0
-254 -909 0
-255 -910 0
-251 -946 0
-252 -947 0
-253 -948 0
-254 -949 0
-255 -950 0
-251 -1051 0
-252 -1052 0
-253 -1053 0
-254 -1054 0
-255 -1055 0
-251 -1186 0
-252 -1187 0
-253 -1188 0
-254 -1189 0
-255 -1190 0
-256 -421 0
-257 -422 0
-258 -423 0
-259 -424 0
-260 -425 0
-256 -426 0
-257 -427 0
-258 -428 0
-259 -429 0
-260 -430 0
-256 -471 0
-257 -472 0
-258 -473 0
-259 -474 0
-260 -475 0
-256 -506 0
-257 -507 0
-258 -508 0
-259 -509 0
-260 -510 0
-256 -526 0
-257 -527 0
-258 -528 0
-259 -529 0
-260 -530 0
-256 -696 0
-257 -697 0
-258 -698 0
-259 -699 0
-260 -700 0
-256 -766 0
-257 -767 0
-258 -768 0
-259 -769 0
-260 -770 0
-256 -796 0
-257 -797 0
-258 -798 0
-259 -799 0
-260 -800 0
-256 -911 0
-257 -912 0
-258 -913 0
-259 -914 0
-260 -915 0
-256 -951 0
-257 -952 0
-258 -953 0
-259 -954 0
-260 -955 0
-256 -1046 0
-257 -1047 0
-258 -1048 0
-259 -1049 0
-260 -1050 0
-256 -1136 0
-257 -1137 0
-258 -1138 0
-259 -1139 0
-260 -1140 0
-256 -1576 0
-257 -1577 0
-258 -1578 0
-259 -1579 0
-260 -1580 0
-261 -426 0
-262 -427 0
-263 -428 0
-264 -429 0
-265 -430 0
-261 -431 0
-262 -432 0
-263 -433 0
-264 -434 0
-265 -435 0
-261 -511 0
-262 -512 0
-263 -513 0
-264 -514 0
-265 -515 0
-261 -531 0
-262 -532 0
-263 -533 0
-264 -534 0
-265 -535 0
-261 -771 0
-262 -772 0
-263 -773 0
-264 -774 0
-265 -775 0
-261 -801 0
-262 -802 0
-263 -803 0
-264 -804 0
-265 -805 0
-261 -896 0
-262 -897 0
-263 -898 0
-264 -899 0
-265 -900 0
-261 -916 0
-262 -917 0
-263 -918 0
-264 -919 0
-265 -920 0
-261 -1071 0
-262 -1072 0
-263 -1073 0
-264 -1074 0
-265 -1075 0
-261 -1146 0
-262 -1147 0
-263 -1148 0
-264 -1149 0
-265 -1150 0
-266 -436 0
-267 -437 0
-268 -438 0
-269 -439 0
-270 -440 0
-266 -441 0
-267 -442 0
-268 -443 0
-269 -444 0
-270 -445 0
-266 -516 0
-267 -517 0
-268 -518 0
-269 -519 0
-270 -520 0
-266 -536 0
-267 -537 0
-268 -538 0
-269 -539 0
-270 -540 0
-266 -681 0
-267 -682 0
-268 -683 0
-269 -684 0
-270 -685 0
-266 -746 0
-267 -747 0
-268 -748 0
-269 -749 0
-270 -750 0
-266 -776 0
-267 -777 0
-268 -778 0
-269 -779 0
-270 -780 0
-266 -921 0
-267 -922 0
-268 -923 0
-269 -924 0
-270 -925 0
-266 -1066 0
-267 -1067 0
-268 -1068 0
-269 -1069 0
-270 -1070 0
-271 -441 0
-272 -442 0
-273 -443 0
-274 -444 0
-275 -445 0
-271 -446 0
-272 -447 0
-273 -448 0
-274 -449 0
-275 -450 0
-271 -481 0
-272 -482 0
-273 -483 0
-274 -484 0
-275 -485 0
-271 -521 0
-272 -522 0
-273 -523 0
-274 -524 0
-275 -525 0
-271 -656 0
-272 -657 0
-273 -658 0
-274 -659 0
-275 -660 0
-271 -751 0
-272 -752 0
-273 -753 0
-274 -754 0
-275 -755 0
-271 -781 0
-272 -782 0
-273 -783 0
-274 -784 0
-275 -785 0
-271 -906 0
-272 -907 0
-273 -908 0
-274 -909 0
-275 -910 0
-271 -926 0
-272 -927 0
-273 -928 0
-274 -929 0
-275 -930 0
-271 -1081 0
-272 -1082 0
-273 -1083 0
-274 -1084 0
-275 -1085 0
-276 -366 0
-277 -367 0
-278 -368 0
-279 -369 0
-280 -370 0
-276 -451 0
-277 -452 0
-278 -453 0
-279 -454 0
-280 -455 0
-276 -476 0
-277 -477 0
-278 -478 0
-279 -479 0
-280 -480 0
-276 -486 0
-277 -487 0
-278 -488 0
-279 -489 0
-280 -490 0
-276 -526 0
-277 -527 0
-278 -528 0
-279 -529 0
-280 -530 0
-276 -786 0
-277 -787 0
-278 -788 0
-279 -789 0
-280 -790 0
-276 -911 0
-277 -912 0
-278 -913 0
-279 -914 0
-280 -915 0
-276 -931 0
-277 -932 0
-278 -933 0
-279 -934 0
-280 -935 0
-276 -1076 0
-277 -1077 0
-278 -1078 0
-279 -1079 0
-280 -1080 0
-276 -1151 0
-277 -1152 0
-278 -1153 0
-279 -1154 0
-280 -1155 0
-276 -1161 0
-277 -1162 0
-278 -1163 0
-279 -1164 0
-280 -1165 0
-281 -371 0
-282 -372 0
-283 -373 0
-284 -374 0
-285 -375 0
-281 -456 0
-282 -457 0
-283 -458 0
-284 -459 0
-285 -460 0
-281 -491 0
-282 -492 0
-283 -493 0
-284 -494 0
-285 -495 0
-281 -531 0
-282 -532 0
-283 -533 0
-284 -534 0
-285 -535 0
-281 -691 0
-282 -692 0
-283 -693 0
-284 -694 0
-285 -695 0
-281 -761 0
-282 -762 0
-283 -763 0
-284 -764 0
-285 -765 0
-281 -791 0
-282 -792 0
-283 -793 0
-284 -794 0
-285 -795 0
-281 -916 0
-282 -917 0
-283 -918 0
-284 -919 0
-285 -920 0
-281 -936 0
-282 -937 0
-283 -938 0
-284 -939 0
-285 -940 0
-281 -1156 0
-282 -1157 0
-283 -1158 0
-284 -1159 0
-285 -1160 0
-281 -1166 0
-282 -1167 0
-283 -1168 0
-284 -1169 0
-285 -1170 0
-286 -376 0
-287 -377 0
-288 -378 0
-289 -379 0
-290 -380 0
-286 -381 0
-287 -382 0
-288 -383 0
-289 -384 0
-290 -385 0
-286 -496 0
-287 -497 0
-288 -498 0
-289 -499 0
-290 -500 0
-286 -536 0
-287 -537 0
-288 -538 0
-289 -539 0
-290 -540 0
-286 -701 0
-287 -702 0
-288 -703 0
-289 -704 0
-290 -705 0
-286 -766 0
-287 -767 0
-288 -768 0
-289 -769 0
-290 -770 0
-286 -796 0
-287 -797 0
-288 -798 0
-289 -799 0
-290 -800 0
-286 -921 0
-287 -922 0
-288 -923 0
-289 -924 0
-290 -925 0
-286 -941 0
-287 -942 0
-288 -943 0
-289 -944 0
-290 -945 0
-286 -1041 0
-287 -1042 0
-288 -1043 0
-289 -1044 0
-290 -1045 0
-286 -1096 0
-287 -1097 0
-288 -1098 0
-289 -1099 0
-290 -1100 0
-286 -1191 0
-287 -1192 0
-288 -1193 0
-289 -1194 0
-290 -1195 0
-291 -381 0
-292 -382 0
-293 -383 0
-294 -384 0
-295 -385 0
-291 -386 0
-292 -387 0
-293 -388 0
-294 -389 0
-295 -390 0
-291 -481 0
-292 -482 0
-293 -483 0
-294 -484 0
-295 -485 0
-291 -501 0
-292 -502 0
-293 -503 0
-294 -504 0
-295 -505 0
-291 -671 0
-292 -672 0
-293 -673 0
-294 -674 0
-295 -675 0
-291 -771 0
-292 -772 0
-293 -773 0
-294 -774 0
-295 -775 0
-291 -801 0
-292 -802 0
-293 -803 0
-294 -804 0
-295 -805 0
-291 -926 0
-292 -927 0
-293 -928 0
-294 -929 0
-295 -930 0
-291 -946 0
-292 -947 0
-293 -948 0
-294 -949 0
-295 -950 0
-291 -1111 0
-292 -1112 0
-293 -1113 0
-294 -1114 0
-295 -1115 0
-296 -396 0
-297 -397 0
-298 -398 0
-299 -399 0
-300 -400 0
-296 -461 0
-297 -462 0
-298 -463 0
-299 -464 0
-300 -465 0
-296 -486 0
-297 -487 0
-298 -488 0
-299 -489 0
-300 -490 0
-296 -676 0
-297 -677 0
-298 -678 0
-299 -679 0
-300 -680 0
-296 -746 0
-297 -747 0
-298 -748 0
-299 -749 0
-300 -750 0
-296 -776 0
-297 -777 0
-298 -778 0
-299 -779 0
-300 -780 0
-296 -931 0
-297 -932 0
-298 -933 0
-299 -934 0
-300 -935 0
-296 -951 0
-297 -952 0
-298 -953 0
-299 -954 0
-300 -955 0
-296 -1106 0
-297 -1107 0
-298 -1108 0
-299 -1109 0
-300 -1110 0
-296 -1171 0
-297 -1172 0
-298 -1173 0
-299 -1174 0
-300 -1175 0
-296 -1176 0
-297 -1177 0
-298 -1178 0
-299 -1179 0
-300 -1180 0
-301 -396 0
-302 -397 0
-303 -398 0
-304 -399 0
-305 -400 0
-301 -401 0
-302 -402 0
-303 -403 0
-304 -404 0
-305 -405 0
-301 -466 0
-302 -467 0
-303 -468 0
-304 -469 0
-305 -470 0
-301 -491 0
-302 -492 0
-303 -493 0
-304 -494 0
-305 -495 0
-301 -511 0
-302 -512 0
-303 -513 0
-304 -514 0
-305 -515 0
-301 -661 0
-302 -662 0
-303 -663 0
-304 -664 0
-305 -665 0
-301 -751 0
-302 -752 0
-303 -753 0
-304 -754 0
-305 -755 0
-301 -781 0
-302 -782 0
-303 -783 0
-304 -784 0
-305 -785 0
-301 -936 0
-302 -937 0
-303 -938 0
-304 -939 0
-305 -940 0
-301 -1131 0
-302 -1132 0
-303 -1133 0
-304 -1134 0
-305 -1135 0
-301 -1181 0
-302 -1182 0
-303 -1183 0
-304 -1184 0
-305 -1185 0
-301 -1571 0
-302 -1572 0
-303 -1573 0
-304 -1574 0
-305 -1575 0
-306 -406 0
-307 -407 0
-308 -408 0
-309 -409 0
-310 -410 0
-306 -421 0
-307 -422 0
-308 -423 0
-309 -424 0
-310 -425 0
-306 -571 0
-307 -572 0
-308 -573 0
-309 -574 0
-310 -575 0
-306 -606 0
-307 -607 0
-308 -608 0
-309 -609 0
-310 -610 0
-306 -826 0
-307 -827 0
-308 -828 0
-309 -829 0
-310 -830 0
-306 -846 0
-307 -847 0
-308 -848 0
-309 -849 0
-310 -850 0
-306 -1056 0
-307 -1057 0
-308 -1058 0
-309 -1059 0
-310 -1060 0
-306 -1136 0
-307 -1137 0
-308 -1138 0
-309 -1139 0
-310 -1140 0
-306 -1196 0
-307 -1197 0
-308 -1198 0
-309 -1199 0
-310 -1200 0
-311 -411 0
-312 -412 0
-313 -413 0
-314 -414 0
-315 -415 0
-311 -426 0
-312 -427 0
-313 -428 0
-314 -429 0
-315 -430 0
-311 -466 0
-312 -467 0
-313 -468 0
-314 -469 0
-315 -470 0
-311 -576 0
-312 -577 0
-313 -578 0
-314 -579 0
-315 -580 0
-311 -611 0
-312 -612 0
-313 -613 0
-314 -614 0
-315 -615 0
-311 -851 0
-312 -852 0
-313 -853 0
-314 -854 0
-315 -855 0
-311 -886 0
-312 -887 0
-313 -888 0
-314 -889 0
-315 -890 0
-311 -1066 0
-312 -1067 0
-313 -1068 0
-314 -1069 0
-315 -1070 0
-311 -1131 0
-312 -1132 0
-313 -1133 0
-314 -1134 0
-315 -1135 0
-311 -1141 0
-312 -1142 0
-313 -1143 0
-314 -1144 0
-315 -1145 0
-311 -1201 0
-312 -1202 0
-313 -1203 0
-314 -1204 0
-315 -1205 0
-316 -426 0
-317 -427 0
-318 -428 0
-319 -429 0
-320 -430 0
-316 -441 0
-317 -442 0
-318 -443 0
-319 -444 0
-320 -445 0
-316 -476 0
-317 -477 0
-318 -478 0
-319 -479 0
-320 -480 0
-316 -586 0
-317 -587 0
-318 -588 0
-319 -589 0
-320 -590 0
-316 -621 0
-317 -622 0
-318 -623 0
-319 -624 0
-320 -625 0
-316 -836 0
-317 -837 0
-318 -838 0
-319 -839 0
-320 -840 0
-316 -861 0
-317 -862 0
-318 -863 0
-319 -864 0
-320 -865 0
-316 -1051 0
-317 -1052 0
-318 -1053 0
-319 -1054 0
-320 -1055 0
-316 -1076 0
-317 -1077 0
-318 -1078 0
-319 -1079 0
-320 -1080 0
-316 -1206 0
-317 -1207 0
-318 -1208 0
-319 -1209 0
-320 -1210 0
-316 -1576 0
-317 -1577 0
-318 -1578 0
-319 -1579 0
-320 -1580 0
-321 -431 0
-322 -432 0
-323 -433 0
-324 -434 0
-325 -435 0
-321 -591 0
-322 -592 0
-323 -593 0
-324 -594 0
-325 -595 0
-321 -626 0
-322 -627 0
-323 -628 0
-324 -629 0
-325 -630 0
-321 -821 0
-322 -822 0
-323 -823 0
-324 -824 0
-325 -825 0
-321 -841 0
-322 -842 0
-323 -843 0
-324 -844 0
-325 -845 0
-321 -1146 0
-322 -1147 0
-323 -1148 0
-324 -1149 0
-325 -1150 0
-321 -1211 0
-322 -1212 0
-323 -1213 0
-324 -1214 0
-325 -1215 0
-326 -436 0
-327 -437 0
-328 -438 0
-329 -439 0
-330 -440 0
-326 -806 0
-327 -807 0
-328 -808 0
-329 -809 0
-330 -810 0
-326 -866 0
-327 -867 0
-328 -868 0
-329 -869 0
-330 -870 0
-326 -1086 0
-327 -1087 0
-328 -1088 0
-329 -1089 0
-330 -1090 0
-326 -1216 0
-327 -1217 0
-328 -1218 0
-329 -1219 0
-330 -1220 0
-331 -366 0
-332 -367 0
-333 -368 0
-334 -369 0
-335 -370 0
-331 -441 0
-332 -442 0
-333 -443 0
-334 -444 0
-335 -445 0
-331 -551 0
-332 -552 0
-333 -553 0
-334 -554 0
-335 -555 0
-331 -606 0
-332 -607 0
-333 -608 0
-334 -609 0
-335 -610 0
-331 -846 0
-332 -847 0
-333 -848 0
-334 -849 0
-335 -850 0
-331 -871 0
-332 -872 0
-333 -873 0
-334 -874 0
-335 -875 0
-331 -1071 0
-332 -1072 0
-333 -1073 0
-334 -1074 0
-335 -1075 0
-331 -1096 0
-332 -1097 0
-333 -1098 0
-334 -1099 0
-335 -1100 0
-331 -1156 0
-332 -1157 0
-333 -1158 0
-334 -1159 0
-335 -1160 0
-331 -1221 0
-332 -1222 0
-333 -1223 0
-334 -1224 0
-335 -1225 0
-336 -366 0
-337 -367 0
-338 -368 0
-339 -369 0
-340 -370 0
-336 -381 0
-337 -382 0
-338 -383 0
-339 -384 0
-340 -385 0
-336 -461 0
-337 -462 0
-338 -463 0
-339 -464 0
-340 -465 0
-336 -561 0
-337 -562 0
-338 -563 0
-339 -564 0
-340 -565 0
-336 -616 0
-337 -617 0
-338 -618 0
-339 -619 0
-340 -620 0
-336 -856 0
-337 -857 0
-338 -858 0
-339 -859 0
-340 -860 0
-336 -881 0
-337 -882 0
-338 -883 0
-339 -884 0
-340 -885 0
-336 -1081 0
-337 -1082 0
-338 -1083 0
-339 -1084 0
-340 -1085 0
-336 -1106 0
-337 -1107 0
-338 -1108 0
-339 -1109 0
-340 -1110 0
-336 -1161 0
-337 -1162 0
-338 -1163 0
-339 -1164 0
-340 -1165 0
-336 -1226 0
-337 -1227 0
-338 -1228 0
-339 -1229 0
-340 -1230 0
-341 -371 0
-342 -372 0
-343 -373 0
-344 -374 0
-345 -375 0
-341 -386 0
-342 -387 0
-343 -388 0
-344 -389 0
-345 -390 0
-341 -566 0
-342 -567 0
-343 -568 0
-344 -569 0
-345 -570 0
-341 -621 0
-342 -622 0
-343 -623 0
-344 -624 0
-345 -625 0
-341 -831 0
-342 -832 0
-343 -833 0
-344 -834 0
-345 -835 0
-341 -861 0
-342 -862 0
-343 -863 0
-344 -864 0
-345 -865 0
-341 -1091 0
-342 -1092 0
-343 -1093 0
-344 -1094 0
-345 -1095 0
-341 -1166 0
-342 -1167 0
-343 -1168 0
-344 -1169 0
-345 -1170 0
-341 -1231 0
-342 -1232 0
-343 -1233 0
-344 -1234 0
-345 -1235 0
-346 -391 0
-347 -392 0
-348 -393 0
-349 -394 0
-350 -395 0
-346 -576 0
-347 -577 0
-348 -578 0
-349 -579 0
-350 -580 0
-346 -816 0
-347 -817 0
-348 -818 0
-349 -819 0
-350 -820 0
-346 -886 0
-347 -887 0
-348 -888 0
-349 -889 0
-350 -890 0
-346 -1116 0
-347 -1117 0
-348 -1118 0
-349 -1119 0
-350 -1120 0
-346 -1171 0
-347 -1172 0
-348 -1173 0
-349 -1174 0
-350 -1175 0
-346 -1191 0
-347 -1192 0
-348 -1193 0
-349 -1194 0
-350 -1195 0
-346 -1236 0
-347 -1237 0
-348 -1238 0
-349 -1239 0
-350 -1240 0
-351 -381 0
-352 -382 0
-353 -383 0
-354 -384 0
-355 -385 0
-351 -396 0
-352 -397 0
-353 -398 0
-354 -399 0
-355 -400 0
-351 -456 0
-352 -457 0
-353 -458 0
-354 -459 0
-355 -460 0
-351 -546 0
-352 -547 0
-353 -548 0
-354 -549 0
-355 -550 0
-351 -866 0
-352 -867 0
-353 -868 0
-354 -869 0
-355 -870 0
-351 -891 0
-352 -892 0
-353 -893 0
-354 -894 0
-355 -895 0
-351 -1101 0
-352 -1102 0
-353 -1103 0
-354 -1104 0
-355 -1105 0
-351 -1126 0
-352 -1127 0
-353 -1128 0
-354 -1129 0
-355 -1130 0
-351 -1241 0
-352 -1242 0
-353 -1243 0
-354 -1244 0
-355 -1245 0
-351 -1571 0
-352 -1572 0
-353 -1573 0
-354 -1574 0
-355 -1575 0
-356 -396 0
-357 -397 0
-358 -398 0
-359 -399 0
-360 -400 0
-356 -411 0
-357 -412 0
-358 -413 0
-359 -414 0
-360 -415 0
-356 -471 0
-357 -472 0
-358 -473 0
-359 -474 0
-360 -475 0
-356 -556 0
-357 -557 0
-358 -558 0
-359 -559 0
-360 -560 0
-356 -591 0
-357 -592 0
-358 -593 0
-359 -594 0
-360 -595 0
-356 -841 0
-357 -842 0
-358 -843 0
-359 -844 0
-360 -845 0
-356 -876 0
-357 -877 0
-358 -878 0
-359 -879 0
-360 -880 0
-356 -1046 0
-357 -1047 0
-358 -1048 0
-359 -1049 0
-360 -1050 0
-356 -1111 0
-357 -1112 0
-358 -1113 0
-359 -1114 0
-360 -1115 0
-356 -1176 0
-357 -1177 0
-358 -1178 0
-359 -1179 0
-360 -1180 0
-356 -1246 0
-357 -1247 0
-358 -1248 0
-359 -1249 0
-360 -1250 0
-361 -401 0
-362 -402 0
-363 -403 0
-364 -404 0
-365 -405 0
-361 -416 0
-362 -417 0
-363 -418 0
-364 -419 0
-365 -420 0
-361 -561 0
-362 -562 0
-363 -563 0
-364 -564 0
-365 -565 0
-361 -596 0
-362 -597 0
-363 -598 0
-364 -599 0
-365 -600 0
-361 -811 0
-362 -812 0
-363 -813 0
-364 -814 0
-365 -815 0
-361 -881 0
-362 -882 0
-363 -883 0
-364 -884 0
-365 -885 0
-361 -1121 0
-362 -1122 0
-363 -1123 0
-364 -1124 0
-365 -1125 0
-361 -1181 0
-362 -1182 0
-363 -1183 0
-364 -1184 0
-365 -1185 0
-361 -1186 0
-362 -1187 0
-363 -1188 0
-364 -1189 0
-365 -1190 0
-361 -1251 0
-362 -1252 0
-363 -1253 0
-364 -1254 0
-365 -1255 0
-366 -396 0
-367 -397 0
-368 -398 0
-369 -399 0
-370 -400 0
-366 -426 0
-367 -427 0
-368 -428 0
-369 -429 0
-370 -430 0
-366 -606 0
-367 -607 0
-368 -608 0
-369 -609 0
-370 -610 0
-366 -756 0
-367 -757 0
-368 -758 0
-369 -759 0
-370 -760 0
-366 -971 0
-367 -972 0
-368 -973 0
-369 -974 0
-370 -975 0
-366 -1026 0
-367 -1027 0
-368 -1028 0
-369 -1029 0
-370 -1030 0
-366 -1051 0
-367 -1052 0
-368 -1053 0
-369 -1054 0
-370 -1055 0
-366 -1126 0
-367 -1127 0
-368 -1128 0
-369 -1129 0
-370 -1130 0
-366 -1136 0
-367 -1137 0
-368 -1138 0
-369 -1139 0
-370 -1140 0
-366 -1181 0
-367 -1182 0
-368 -1183 0
-369 -1184 0
-370 -1185 0
-366 -1201 0
-367 -1202 0
-368 -1203 0
-369 -1204 0
-370 -1205 0
-366 -1246 0
-367 -1247 0
-368 -1248 0
-369 -1249 0
-370 -1250 0
-366 -1296 0
-367 -1297 0
-368 -1298 0
-369 -1299 0
-370 -1300 0
-366 -1301 0
-367 -1302 0
-368 -1303 0
-369 -1304 0
-370 -1305 0
-366 -1386 0
-367 -1387 0
-368 -1388 0
-369 -1389 0
-370 -1390 0
-371 -401 0
-372 -402 0
-373 -403 0
-374 -404 0
-375 -405 0
-371 -431 0
-372 -432 0
-373 -433 0
-374 -434 0
-375 -435 0
-371 -566 0
-372 -567 0
-373 -568 0
-374 -569 0
-375 -570 0
-371 -611 0
-372 -612 0
-373 -613 0
-374 -614 0
-375 -615 0
-371 -691 0
-372 -692 0
-373 -693 0
-374 -694 0
-375 -695 0
-371 -761 0
-372 -762 0
-373 -763 0
-374 -764 0
-375 -765 0
-371 -831 0
-372 -832 0
-373 -833 0
-374 -834 0
-375 -835 0
-371 -976 0
-372 -977 0
-373 -978 0
-374 -979 0
-375 -980 0
-371 -1031 0
-372 -1032 0
-373 -1033 0
-374 -1034 0
-375 -1035 0
-371 -1061 0
-372 -1062 0
-373 -1063 0
-374 -1064 0
-375 -1065 0
-371 -1141 0
-372 -1142 0
-373 -1143 0
-374 -1144 0
-375 -1145 0
-371 -1251 0
-372 -1252 0
-373 -1253 0
-374 -1254 0
-375 -1255 0
-371 -1301 0
-372 -1302 0
-373 -1303 0
-374 -1304 0
-375 -1305 0
-371 -1306 0
-372 -1307 0
-373 -1308 0
-374 -1309 0
-375 -1310 0
-376 -406 0
-377 -407 0
-378 -408 0
-379 -409 0
-380 -410 0
-376 -436 0
-377 -437 0
-378 -438 0
-379 -439 0
-380 -440 0
-376 -576 0
-377 -577 0
-378 -578 0
-379 -579 0
-380 -580 0
-376 -796 0
-377 -797 0
-378 -798 0
-379 -799 0
-380 -800 0
-376 -981 0
-377 -982 0
-378 -983 0
-379 -984 0
-380 -985 0
-376 -1036 0
-377 -1037 0
-378 -1038 0
-379 -1039 0
-380 -1040 0
-376 -1196 0
-377 -1197 0
-378 -1198 0
-379 -1199 0
-380 -1200 0
-376 -1311 0
-377 -1312 0
-378 -1313 0
-379 -1314 0
-380 -1315 0
-381 -441 0
-382 -442 0
-383 -443 0
-384 -444 0
-385 -445 0
-381 -581 0
-382 -582 0
-383 -583 0
-384 -584 0
-385 -585 0
-381 -616 0
-382 -617 0
-383 -618 0
-384 -619 0
-385 -620 0
-381 -671 0
-382 -672 0
-383 -673 0
-384 -674 0
-385 -675 0
-381 -701 0
-382 -702 0
-383 -703 0
-384 -704 0
-385 -705 0
-381 -766 0
-382 -767 0
-383 -768 0
-384 -769 0
-385 -770 0
-381 -801 0
-382 -802 0
-383 -803 0
-384 -804 0
-385 -805 0
-381 -956 0
-382 -957 0
-383 -958 0
-384 -959 0
-385 -960 0
-381 -1046 0
-382 -1047 0
-383 -1048 0
-384 -1049 0
-385 -1050 0
-381 -1201 0
-382 -1202 0
-383 -1203 0
-384 -1204 0
-385 -1205 0
-381 -1206 0
-382 -1207 0
-383 -1208 0
-384 -1209 0
-385 -1210 0
-381 -1261 0
-382 -1262 0
-383 -1263 0
-384 -1264 0
-385 -1265 0
-381 -1266 0
-382 -1267 0
-383 -1268 0
-384 -1269 0
-385 -1270 0
-381 -1311 0
-382 -1312 0
-383 -1313 0
-384 -1314 0
-385 -1315 0
-381 -1316 0
-382 -1317 0
-383 -1318 0
-384 -1319 0
-385 -1320 0
-386 -446 0
-387 -447 0
-388 -448 0
-389 -449 0
-390 -450 0
-386 -621 0
-387 -622 0
-388 -623 0
-389 -624 0
-390 -625 0
-386 -771 0
-387 -772 0
-388 -773 0
-389 -774 0
-390 -775 0
-386 -961 0
-387 -962 0
-388 -963 0
-389 -964 0
-390 -965 0
-386 -1211 0
-387 -1212 0
-388 -1213 0
-389 -1214 0
-390 -1215 0
-386 -1316 0
-387 -1317 0
-388 -1318 0
-389 -1319 0
-390 -1320 0
-391 -421 0
-392 -422 0
-393 -423 0
-394 -424 0
-395 -425 0
-391 -451 0
-392 -452 0
-393 -453 0
-394 -454 0
-395 -455 0
-391 -541 0
-392 -542 0
-393 -543 0
-394 -544 0
-395 -545 0
-391 -586 0
-392 -587 0
-393 -588 0
-394 -589 0
-395 -590 0
-391 -746 0
-392 -747 0
-393 -748 0
-394 -749 0
-395 -750 0
-391 -816 0
-392 -817 0
-393 -818 0
-394 -819 0
-395 -820 0
-391 -966 0
-392 -967 0
-393 -968 0
-394 -969 0
-395 -970 0
-391 -1056 0
-392 -1057 0
-393 -1058 0
-394 -1059 0
-395 -1060 0
-391 -1216 0
-392 -1217 0
-393 -1218 0
-394 -1219 0
-395 -1220 0
-391 -1321 0
-392 -1322 0
-393 -1323 0
-394 -1324 0
-395 -1325 0
-391 -1326 0
-392 -1327 0
-393 -1328 0
-394 -1329 0
-395 -1330 0
-391 -1576 0
-392 -1577 0
-393 -1578 0
-394 -1579 0
-395 -1580 0
-396 -426 0
-397 -427 0
-398 -428 0
-399 -429 0
-400 -430 0
-396 -591 0
-397 -592 0
-398 -593 0
-399 -594 0
-400 -595 0
-396 -751 0
-397 -752 0
-398 -753 0
-399 -754 0
-400 -755 0
-396 -776 0
-397 -777 0
-398 -778 0
-399 -779 0
-400 -780 0
-396 -996 0
-397 -997 0
-398 -998 0
-399 -999 0
-400 -1000 0
-396 -1066 0
-397 -1067 0
-398 -1068 0
-399 -1069 0
-400 -1070 0
-396 -1146 0
-397 -1147 0
-398 -1148 0
-399 -1149 0
-400 -1150 0
-396 -1151 0
-397 -1152 0
-398 -1153 0
-399 -1154 0
-400 -1155 0
-396 -1206 0
-397 -1207 0
-398 -1208 0
-399 -1209 0
-400 -1210 0
-396 -1221 0
-397 -1222 0
-398 -1223 0
-399 -1224 0
-400 -1225 0
-396 -1326 0
-397 -1327 0
-398 -1328 0
-399 -1329 0
-400 -1330 0
-396 -1331 0
-397 -1332 0
-398 -1333 0
-399 -1334 0
-400 -1335 0
-401 -431 0
-402 -432 0
-403 -433 0
-404 -434 0
-405 -435 0
-401 -551 0
-402 -552 0
-403 -553 0
-404 -554 0
-405 -555 0
-401 -596 0
-402 -597 0
-403 -598 0
-404 -599 0
-405 -600 0
-401 -661 0
-402 -662 0
-403 -663 0
-404 -664 0
-405 -665 0
-401 -781 0
-402 -782 0
-403 -783 0
-404 -784 0
-405 -785 0
-401 -811 0
-402 -812 0
-403 -813 0
-404 -814 0
-405 -815 0
-401 -976 0
-402 -977 0
-403 -978 0
-404 -979 0
-405 -980 0
-401 -1001 0
-402 -1002 0
-403 -1003 0
-404 -1004 0
-405 -1005 0
-401 -1091 0
-402 -1092 0
-403 -1093 0
-404 -1094 0
-405 -1095 0
-401 -1156 0
-402 -1157 0
-403 -1158 0
-404 -1159 0
-405 -1160 0
-401 -1211 0
-402 -1212 0
-403 -1213 0
-404 -1214 0
-405 -1215 0
-401 -1331 0
-402 -1332 0
-403 -1333 0
-404 -1334 0
-405 -1335 0
-401 -1336 0
-402 -1337 0
-403 -1338 0
-404 -1339 0
-405 -1340 0
-406 -436 0
-407 -437 0
-408 -438 0
-409 -439 0
-410 -440 0
-406 -981 0
-407 -982 0
-408 -983 0
-409 -984 0
-410 -985 0
-406 -1006 0
-407 -1007 0
-408 -1008 0
-409 -1009 0
-410 -1010 0
-406 -1216 0
-407 -1217 0
-408 -1218 0
-409 -1219 0
-410 -1220 0
-411 -441 0
-412 -442 0
-413 -443 0
-414 -444 0
-415 -445 0
-411 -556 0
-412 -557 0
-413 -558 0
-414 -559 0
-415 -560 0
-411 -611 0
-412 -612 0
-413 -613 0
-414 -614 0
-415 -615 0
-411 -666 0
-412 -667 0
-413 -668 0
-414 -669 0
-415 -670 0
-411 -761 0
-412 -762 0
-413 -763 0
-414 -764 0
-415 -765 0
-411 -786 0
-412 -787 0
-413 -788 0
-414 -789 0
-415 -790 0
-411 -986 0
-412 -987 0
-413 -988 0
-414 -989 0
-415 -990 0
-411 -1011 0
-412 -1012 0
-413 -1013 0
-414 -1014 0
-415 -1015 0
-411 -1076 0
-412 -1077 0
-413 -1078 0
-414 -1079 0
-415 -1080 0
-411 -1101 0
-412 -1102 0
-413 -1103 0
-414 -1104 0
-415 -1105 0
-411 -1221 0
-412 -1222 0
-413 -1223 0
-414 -1224 0
-415 -1225 0
-411 -1226 0
-412 -1227 0
-413 -1228 0
-414 -1229 0
-415 -1230 0
-411 -1271 0
-412 -1272 0
-413 -1273 0
-414 -1274 0
-415 -1275 0
-411 -1276 0
-412 -1277 0
-413 -1278 0
-414 -1279 0
-415 -1280 0
-411 -1341 0
-412 -1342 0
-413 -1343 0
-414 -1344 0
-415 -1345 0
-411 -1346 0
-412 -1347 0
-413 -1348 0
-414 -1349 0
-415 -1350 0
-416 -446 0
-417 -447 0
-418 -448 0
-419 -449 0
-420 -450 0
-416 -561 0
-417 -562 0
-418 -563 0
-419 -564 0
-420 -565 0
-416 -791 0
-417 -792 0
-418 -793 0
-419 -794 0
-420 -795 0
-416 -991 0
-417 -992 0
-418 -993 0
-419 -994 0
-420 -995 0
-416 -1016 0
-417 -1017 0
-418 -1018 0
-419 -1019 0
-420 -1020 0
-416 -1231 0
-417 -1232 0
-418 -1233 0
-419 -1234 0
-420 -1235 0
-416 -1346 0
-417 -1347 0
-418 -1348 0
-419 -1349 0
-420 -1350 0
-421 -451 0
-422 -452 0
-423 -453 0
-424 -454 0
-425 -455 0
-421 -571 0
-422 -572 0
-423 -573 0
-424 -574 0
-425 -575 0
-421 -616 0
-422 -617 0
-423 -618 0
-424 -619 0
-425 -620 0
-421 -696 0
-422 -697 0
-423 -698 0
-424 -699 0
-425 -700 0
-421 -766 0
-422 -767 0
-423 -768 0
-424 -769 0
-425 -770 0
-421 -1021 0
-422 -1022 0
-423 -1023 0
-424 -1024 0
-425 -1025 0
-421 -1086 0
-422 -1087 0
-423 -1088 0
-424 -1089 0
-425 -1090 0
-421 -1161 0
-422 -1162 0
-423 -1163 0
-424 -1164 0
-425 -1165 0
-421 -1236 0
-422 -1237 0
-423 -1238 0
-424 -1239 0
-425 -1240 0
-421 -1351 0
-422 -1352 0
-423 -1353 0
-424 -1354 0
-425 -1355 0
-426 -576 0
-427 -577 0
-428 -578 0
-429 -579 0
-430 -580 0
-426 -621 0
-427 -622 0
-428 -623 0
-429 -624 0
-430 -625 0
-426 -771 0
-427 -772 0
-428 -773 0
-429 -774 0
-430 -775 0
-426 -796 0
-427 -797 0
-428 -798 0
-429 -799 0
-430 -800 0
-426 -996 0
-427 -997 0
-428 -998 0
-429 -999 0
-430 -1000 0
-426 -1026 0
-427 -1027 0
-428 -1028 0
-429 -1029 0
-430 -1030 0
-426 -1096 0
-427 -1097 0
-428 -1098 0
-429 -1099 0
-430 -1100 0
-426 -1166 0
-427 -1167 0
-428 -1168 0
-429 -1169 0
-430 -1170 0
-426 -1171 0
-427 -1172 0
-428 -1173 0
-429 -1174 0
-430 -1175 0
-426 -1226 0
-427 -1227 0
-428 -1228 0
-429 -1229 0
-430 -1230 0
-426 -1241 0
-427 -1242 0
-428 -1243 0
-429 -1244 0
-430 -1245 0
-426 -1281 0
-427 -1282 0
-428 -1283 0
-429 -1284 0
-430 -1285 0
-426 -1356 0
-427 -1357 0
-428 -1358 0
-429 -1359 0
-430 -1360 0
-426 -1361 0
-427 -1362 0
-428 -1363 0
-429 -1364 0
-430 -1365 0
-431 -581 0
-432 -582 0
-433 -583 0
-434 -584 0
-435 -585 0
-431 -626 0
-432 -627 0
-433 -628 0
-434 -629 0
-435 -630 0
-431 -801 0
-432 -802 0
-433 -803 0
-434 -804 0
-435 -805 0
-431 -821 0
-432 -822 0
-433 -823 0
-434 -824 0
-435 -825 0
-431 -1001 0
-432 -1002 0
-433 -1003 0
-434 -1004 0
-435 -1005 0
-431 -1031 0
-432 -1032 0
-433 -1033 0
-434 -1034 0
-435 -1035 0
-431 -1121 0
-432 -1122 0
-433 -1123 0
-434 -1124 0
-435 -1125 0
-431 -1231 0
-432 -1232 0
-433 -1233 0
-434 -1234 0
-435 -1235 0
-431 -1361 0
-432 -1362 0
-433 -1363 0
-434 -1364 0
-435 -1365 0
-431 -1366 0
-432 -1367 0
-433 -1368 0
-434 -1369 0
-435 -1370 0
-431 -1571 0
-432 -1572 0
-433 -1573 0
-434 -1574 0
-435 -1575 0
-436 -546 0
-437 -547 0
-438 -548 0
-439 -549 0
-440 -550 0
-436 -776 0
-437 -777 0
-438 -778 0
-439 -779 0
-440 -780 0
-436 -1036 0
-437 -1037 0
-438 -1038 0
-439 -1039 0
-440 -1040 0
-436 -1236 0
-437 -1237 0
-438 -1238 0
-439 -1239 0
-440 -1240 0
-436 -1371 0
-437 -1372 0
-438 -1373 0
-439 -1374 0
-440 -1375 0
-441 -551 0
-442 -552 0
-443 -553 0
-444 -554 0
-445 -555 0
-441 -586 0
-442 -587 0
-443 -588 0
-444 -589 0
-445 -590 0
-441 -656 0
-442 -657 0
-443 -658 0
-444 -659 0
-445 -660 0
-441 -681 0
-442 -682 0
-443 -683 0
-444 -684 0
-445 -685 0
-441 -746 0
-442 -747 0
-443 -748 0
-444 -749 0
-445 -750 0
-441 -781 0
-442 -782 0
-443 -783 0
-444 -784 0
-445 -785 0
-441 -956 0
-442 -957 0
-443 -958 0
-444 -959 0
-445 -960 0
-441 -1011 0
-442 -1012 0
-443 -1013 0
-444 -1014 0
-445 -1015 0
-441 -1106 0
-442 -1107 0
-443 -1108 0
-444 -1109 0
-445 -1110 0
-441 -1131 0
-442 -1132 0
-443 -1133 0
-444 -1134 0
-445 -1135 0
-441 -1241 0
-442 -1242 0
-443 -1243 0
-444 -1244 0
-445 -1245 0
-441 -1246 0
-442 -1247 0
-443 -1248 0
-444 -1249 0
-445 -1250 0
-441 -1286 0
-442 -1287 0
-443 -1288 0
-444 -1289 0
-445 -1290 0
-441 -1291 0
-442 -1292 0
-443 -1293 0
-444 -1294 0
-445 -1295 0
-441 -1371 0
-442 -1372 0
-443 -1373 0
-444 -1374 0
-445 -1375 0
-441 -1376 0
-442 -1377 0
-443 -1378 0
-444 -1379 0
-445 -1380 0
-446 -591 0
-447 -592 0
-448 -593 0
-449 -594 0
-450 -595 0
-446 -751 0
-447 -752 0
-448 -753 0
-449 -754 0
-450 -755 0
-446 -961 0
-447 -962 0
-448 -963 0
-449 -964 0
-450 -965 0
-446 -1016 0
-447 -1017 0
-448 -1018 0
-449 -1019 0
-450 -1020 0
-446 -1251 0
-447 -1252 0
-448 -1253 0
-449 -1254 0
-450 -1255 0
-446 -1376 0
-447 -1377 0
-448 -1378 0
-449 -1379 0
-450 -1380 0
-451 -556 0
-452 -557 0
-453 -558 0
-454 -559 0
-455 -560 0
-451 -601 0
-452 -602 0
-453 -603 0
-454 -604 0
-455 -605 0
-451 -786 0
-452 -787 0
-453 -788 0
-454 -789 0
-455 -790 0
-451 -806 0
-452 -807 0
-453 -808 0
-454 -809 0
-455 -810 0
-451 -966 0
-452 -967 0
-453 -968 0
-454 -969 0
-455 -970 0
-451 -1021 0
-452 -1022 0
-453 -1023 0
-454 -1024 0
-455 -1025 0
-451 -1116 0
-452 -1117 0
-453 -1118 0
-454 -1119 0
-455 -1120 0
-451 -1381 0
-452 -1382 0
-453 -1383 0
-454 -1384 0
-455 -1385 0
-451 -1386 0
-452 -1387 0
-453 -1388 0
-454 -1389 0
-455 -1390 0
-456 -531 0
-457 -532 0
-458 -533 0
-459 -534 0
-460 -535 0
-456 -726 0
-457 -727 0
-458 -728 0
-459 -729 0
-460 -730 0
-456 -891 0
-457 -892 0
-458 -893 0
-459 -894 0
-460 -895 0
-456 -1146 0
-457 -1147 0
-458 -1148 0
-459 -1149 0
-460 -1150 0
-456 -1256 0
-457 -1257 0
-458 -1258 0
-459 -1259 0
-460 -1260 0
-461 -506 0
-462 -507 0
-463 -508 0
-464 -509 0
-465 -510 0
-461 -651 0
-462 -652 0
-463 -653 0
-464 -654 0
-465 -655 0
-461 -741 0
-462 -742 0
-463 -743 0
-464 -744 0
-465 -745 0
-461 -856 0
-462 -857 0
-463 -858 0
-464 -859 0
-465 -860 0
-461 -1136 0
-462 -1137 0
-463 -1138 0
-464 -1139 0
-465 -1140 0
-461 -1321 0
-462 -1322 0
-463 -1323 0
-464 -1324 0
-465 -1325 0
-466 -646 0
-467 -647 0
-468 -648 0
-469 -649 0
-470 -650 0
-466 -736 0
-467 -737 0
-468 -738 0
-469 -739 0
-470 -740 0
-466 -851 0
-467 -852 0
-468 -853 0
-469 -854 0
-470 -855 0
-466 -1166 0
-467 -1167 0
-468 -1168 0
-469 -1169 0
-470 -1170 0
-466 -1336 0
-467 -1337 0
-468 -1338 0
-469 -1339 0
-470 -1340 0
-471 -526 0
-472 -527 0
-473 -528 0
-474 -529 0
-475 -530 0
-471 -631 0
-472 -632 0
-473 -633 0
-474 -634 0
-475 -635 0
-471 -876 0
-472 -877 0
-473 -878 0
-474 -879 0
-475 -880 0
-471 -1151 0
-472 -1152 0
-473 -1153 0
-474 -1154 0
-475 -1155 0
-471 -1351 0
-472 -1352 0
-473 -1353 0
-474 -1354 0
-475 -1355 0
-476 -486 0
-477 -487 0
-478 -488 0
-479 -489 0
-480 -490 0
-476 -641 0
-477 -642 0
-478 -643 0
-479 -644 0
-480 -645 0
-476 -731 0
-477 -732 0
-478 -733 0
-479 -734 0
-480 -735 0
-476 -1171 0
-477 -1172 0
-478 -1173 0
-479 -1174 0
-480 -1175 0
-476 -1296 0
-477 -1297 0
-478 -1298 0
-479 -1299 0
-480 -1300 0
-476 -1381 0
-477 -1382 0
-478 -1383 0
-479 -1384 0
-480 -1385 0
-476 -1566 0
-477 -1567 0
-478 -1568 0
-479 -1569 0
-480 -1570 0
-481 -691 0
-482 -692 0
-483 -693 0
-484 -694 0
-485 -695 0
-481 -946 0
-482 -947 0
-483 -948 0
-484 -949 0
-485 -950 0
-481 -1246 0
-482 -1247 0
-483 -1248 0
-484 -1249 0
-485 -1250 0
-481 -1261 0
-482 -1262 0
-483 -1263 0
-484 -1264 0
-485 -1265 0
-481 -1396 0
-482 -1397 0
-483 -1398 0
-484 -1399 0
-485 -1400 0
-486 -636 0
-487 -637 0
-488 -638 0
-489 -639 0
-490 -640 0
-486 -701 0
-487 -702 0
-488 -703 0
-489 -704 0
-490 -705 0
-486 -911 0
-487 -912 0
-488 -913 0
-489 -914 0
-490 -915 0
-486 -951 0
-487 -952 0
-488 -953 0
-489 -954 0
-490 -955 0
-486 -1196 0
-487 -1197 0
-488 -1198 0
-489 -1199 0
-490 -1200 0
-486 -1206 0
-487 -1207 0
-488 -1208 0
-489 -1209 0
-490 -1210 0
-486 -1256 0
-487 -1257 0
-488 -1258 0
-489 -1259 0
-490 -1260 0
-486 -1581 0
-487 -1582 0
-488 -1583 0
-489 -1584 0
-490 -1585 0
-491 -651 0
-492 -652 0
-493 -653 0
-494 -654 0
-495 -655 0
-491 -671 0
-492 -672 0
-493 -673 0
-494 -674 0
-495 -675 0
-491 -916 0
-492 -917 0
-493 -918 0
-494 -919 0
-495 -920 0
-491 -1201 0
-492 -1202 0
-493 -1203 0
-494 -1204 0
-495 -1205 0
-491 -1611 0
-492 -1612 0
-493 -1613 0
-494 -1614 0
-495 -1615 0
-496 -676 0
-497 -677 0
-498 -678 0
-499 -679 0
-500 -680 0
-496 -901 0
-497 -902 0
-498 -903 0
-499 -904 0
-500 -905 0
-496 -921 0
-497 -922 0
-498 -923 0
-499 -924 0
-500 -925 0
-496 -1221 0
-497 -1222 0
-498 -1223 0
-499 -1224 0
-500 -1225 0
-496 -1266 0
-497 -1267 0
-498 -1268 0
-499 -1269 0
-500 -1270 0
-496 -1401 0
-497 -1402 0
-498 -1403 0
-499 -1404 0
-500 -1405 0
-496 -1621 0
-497 -1622 0
-498 -1623 0
-499 -1624 0
-500 -1625 0
-501 -661 0
-502 -662 0
-503 -663 0
-504 -664 0
-505 -665 0
-501 -926 0
-502 -927 0
-503 -928 0
-504 -929 0
-505 -930 0
-501 -1406 0
-502 -1407 0
-503 -1408 0
-504 -1409 0
-505 -1410 0
-501 -1561 0
-502 -1562 0
-503 -1563 0
-504 -1564 0
-505 -1565 0
-506 -646 0
-507 -647 0
-508 -648 0
-509 -649 0
-510 -650 0
-506 -666 0
-507 -667 0
-508 -668 0
-509 -669 0
-510 -670 0
-506 -911 0
-507 -912 0
-508 -913 0
-509 -914 0
-510 -915 0
-506 -931 0
-507 -932 0
-508 -933 0
-509 -934 0
-510 -935 0
-506 -1216 0
-507 -1217 0
-508 -1218 0
-509 -1219 0
-510 -1220 0
-506 -1226 0
-507 -1227 0
-508 -1228 0
-509 -1229 0
-510 -1230 0
-506 -1556 0
-507 -1557 0
-508 -1558 0
-509 -1559 0
-510 -1560 0
-506 -1596 0
-507 -1597 0
-508 -1598 0
-509 -1599 0
-510 -1600 0
-511 -631 0
-512 -632 0
-513 -633 0
-514 -634 0
-515 -635 0
-511 -686 0
-512 -687 0
-513 -688 0
-514 -689 0
-515 -690 0
-511 -916 0
-512 -917 0
-513 -918 0
-514 -919 0
-515 -920 0
-511 -936 0
-512 -937 0
-513 -938 0
-514 -939 0
-515 -940 0
-511 -1221 0
-512 -1222 0
-513 -1223 0
-514 -1224 0
-515 -1225 0
-511 -1231 0
-512 -1232 0
-513 -1233 0
-514 -1234 0
-515 -1235 0
-516 -696 0
-517 -697 0
-518 -698 0
-519 -699 0
-520 -700 0
-516 -921 0
-517 -922 0
-518 -923 0
-519 -924 0
-520 -925 0
-516 -941 0
-517 -942 0
-518 -943 0
-519 -944 0
-520 -945 0
-516 -1241 0
-517 -1242 0
-518 -1243 0
-519 -1244 0
-520 -1245 0
-516 -1276 0
-517 -1277 0
-518 -1278 0
-519 -1279 0
-520 -1280 0
-516 -1411 0
-517 -1412 0
-518 -1413 0
-519 -1414 0
-520 -1415 0
-521 -926 0
-522 -927 0
-523 -928 0
-524 -929 0
-525 -930 0
-521 -946 0
-522 -947 0
-523 -948 0
-524 -949 0
-525 -950 0
-521 -1226 0
-522 -1227 0
-523 -1228 0
-524 -1229 0
-525 -1230 0
-521 -1286 0
-522 -1287 0
-523 -1288 0
-524 -1289 0
-525 -1290 0
-521 -1416 0
-522 -1417 0
-523 -1418 0
-524 -1419 0
-525 -1420 0
-526 -681 0
-527 -682 0
-528 -683 0
-529 -684 0
-530 -685 0
-526 -951 0
-527 -952 0
-528 -953 0
-529 -954 0
-530 -955 0
-526 -1236 0
-527 -1237 0
-528 -1238 0
-529 -1239 0
-530 -1240 0
-526 -1246 0
-527 -1247 0
-528 -1248 0
-529 -1249 0
-530 -1250 0
-526 -1281 0
-527 -1282 0
-528 -1283 0
-529 -1284 0
-530 -1285 0
-526 -1601 0
-527 -1602 0
-528 -1603 0
-529 -1604 0
-530 -1605 0
-531 -641 0
-532 -642 0
-533 -643 0
-534 -644 0
-535 -645 0
-531 -656 0
-532 -657 0
-533 -658 0
-534 -659 0
-535 -660 0
-531 -896 0
-532 -897 0
-533 -898 0
-534 -899 0
-535 -900 0
-531 -936 0
-532 -937 0
-533 -938 0
-534 -939 0
-535 -940 0
-531 -1241 0
-532 -1242 0
-533 -1243 0
-534 -1244 0
-535 -1245 0
-531 -1251 0
-532 -1252 0
-533 -1253 0
-534 -1254 0
-535 -1255 0
-531 -1391 0
-532 -1392 0
-533 -1393 0
-534 -1394 0
-535 -1395 0
-536 -901 0
-537 -902 0
-538 -903 0
-539 -904 0
-540 -905 0
-536 -941 0
-537 -942 0
-538 -943 0
-539 -944 0
-540 -945 0
-536 -1201 0
-537 -1202 0
-538 -1203 0
-539 -1204 0
-540 -1205 0
-536 -1291 0
-537 -1292 0
-538 -1293 0
-539 -1294 0
-540 -1295 0
-536 -1421 0
-537 -1422 0
-538 -1423 0
-539 -1424 0
-540 -1425 0
-541 -826 0
-542 -827 0
-543 -828 0
-544 -829 0
-545 -830 0
-541 -1056 0
-542 -1057 0
-543 -1058 0
-544 -1059 0
-545 -1060 0
-541 -1381 0
-542 -1382 0
-543 -1383 0
-544 -1384 0
-545 -1385 0
-541 -1421 0
-542 -1422 0
-543 -1423 0
-544 -1424 0
-545 -1425 0
-541 -1426 0
-542 -1427 0
-543 -1428 0
-544 -1429 0
-545 -1430 0
-541 -1581 0
-542 -1582 0
-543 -1583 0
-544 -1584 0
-545 -1585 0
-546 -1066 0
-547 -1067 0
-548 -1068 0
-549 -1069 0
-550 -1070 0
-546 -1311 0
-547 -1312 0
-548 -1313 0
-549 -1314 0
-550 -1315 0
-546 -1386 0
-547 -1387 0
-548 -1388 0
-549 -1389 0
-550 -1390 0
-546 -1431 0
-547 -1432 0
-548 -1433 0
-549 -1434 0
-550 -1435 0
-551 -1131 0
-552 -1132 0
-553 -1133 0
-554 -1134 0
-555 -1135 0
-551 -1301 0
-552 -1302 0
-553 -1303 0
-554 -1304 0
-555 -1305 0
-551 -1316 0
-552 -1317 0
-553 -1318 0
-554 -1319 0
-555 -1320 0
-551 -1436 0
-552 -1437 0
-553 -1438 0
-554 -1439 0
-555 -1440 0
-556 -1076 0
-557 -1077 0
-558 -1078 0
-559 -1079 0
-560 -1080 0
-556 -1311 0
-557 -1312 0
-558 -1313 0
-559 -1314 0
-560 -1315 0
-556 -1326 0
-557 -1327 0
-558 -1328 0
-559 -1329 0
-560 -1330 0
-561 -1051 0
-562 -1052 0
-563 -1053 0
-564 -1054 0
-565 -1055 0
-561 -1316 0
-562 -1317 0
-563 -1318 0
-564 -1319 0
-565 -1320 0
-561 -1446 0
-562 -1447 0
-563 -1448 0
-564 -1449 0
-565 -1450 0
-566 -821 0
-567 -822 0
-568 -823 0
-569 -824 0
-570 -825 0
-566 -1336 0
-567 -1337 0
-568 -1338 0
-569 -1339 0
-570 -1340 0
-566 -1611 0
-567 -1612 0
-568 -1613 0
-569 -1614 0
-570 -1615 0
-571 -806 0
-572 -807 0
-573 -808 0
-574 -809 0
-575 -810 0
-571 -1086 0
-572 -1087 0
-573 -1088 0
-574 -1089 0
-575 -1090 0
-571 -1401 0
-572 -1402 0
-573 -1403 0
-574 -1404 0
-575 -1405 0
-571 -1556 0
-572 -1557 0
-573 -1558 0
-574 -1559 0
-575 -1560 0
-576 -1096 0
-577 -1097 0
-578 -1098 0
-579 -1099 0
-580 -1100 0
-576 -1326 0
-577 -1327 0
-578 -1328 0
-579 -1329 0
-580 -1330 0
-576 -1341 0
-577 -1342 0
-578 -1343 0
-579 -1344 0
-580 -1345 0
-576 -1451 0
-577 -1452 0
-578 -1453 0
-579 -1454 0
-580 -1455 0
-581 -1071 0
-582 -1072 0
-583 -1073 0
-584 -1074 0
-585 -1075 0
-581 -1331 0
-582 -1332 0
-583 -1333 0
-584 -1334 0
-585 -1335 0
-581 -1346 0
-582 -1347 0
-583 -1348 0
-584 -1349 0
-585 -1350 0
-586 -1106 0
-587 -1107 0
-588 -1108 0
-589 -1109 0
-590 -1110 0
-586 -1341 0
-587 -1342 0
-588 -1343 0
-589 -1344 0
-590 -1345 0
-586 -1356 0
-587 -1357 0
-588 -1358 0
-589 -1359 0
-590 -1360 0
-591 -1081 0
-592 -1082 0
-593 -1083 0
-594 -1084 0
-595 -1085 0
-591 -1346 0
-592 -1347 0
-593 -1348 0
-594 -1349 0
-595 -1350 0
-591 -1466 0
-592 -1467 0
-593 -1468 0
-594 -1469 0
-595 -1470 0
-596 -831 0
-597 -832 0
-598 -833 0
-599 -834 0
-600 -835 0
-596 -1091 0
-597 -1092 0
-598 -1093 0
-599 -1094 0
-600 -1095 0
-596 -1366 0
-597 -1367 0
-598 -1368 0
-599 -1369 0
-600 -1370 0
-596 -1416 0
-597 -1417 0
-598 -1418 0
-599 -1419 0
-600 -1420 0
-601 -816 0
-602 -817 0
-603 -818 0
-604 -819 0
-605 -820 0
-601 -1116 0
-602 -1117 0
-603 -1118 0
-604 -1119 0
-605 -1120 0
-601 -1351 0
-602 -1352 0
-603 -1353 0
-604 -1354 0
-605 -1355 0
-601 -1411 0
-602 -1412 0
-603 -1413 0
-604 -1414 0
-605 -1415 0
-601 -1601 0
-602 -1602 0
-603 -1603 0
-604 -1604 0
-605 -1605 0
-606 -1126 0
-607 -1127 0
-608 -1128 0
-609 -1129 0
-610 -1130 0
-606 -1356 0
-607 -1357 0
-608 -1358 0
-609 -1359 0
-610 -1360 0
-611 -1361 0
-612 -1362 0
-613 -1363 0
-614 -1364 0
-615 -1365 0
-611 -1376 0
-612 -1377 0
-613 -1378 0
-614 -1379 0
-615 -1380 0
-611 -1471 0
-612 -1472 0
-613 -1473 0
-614 -1474 0
-615 -1475 0
-616 -1046 0
-617 -1047 0
-618 -1048 0
-619 -1049 0
-620 -1050 0
-616 -1371 0
-617 -1372 0
-618 -1373 0
-619 -1374 0
-620 -1375 0
-616 -1386 0
-617 -1387 0
-618 -1388 0
-619 -1389 0
-620 -1390 0
-616 -1476 0
-617 -1477 0
-618 -1478 0
-619 -1479 0
-620 -1480 0
-621 -1111 0
-622 -1112 0
-623 -1113 0
-624 -1114 0
-625 -1115 0
-621 -1301 0
-622 -1302 0
-623 -1303 0
-624 -1304 0
-625 -1305 0
-621 -1376 0
-622 -1377 0
-623 -1378 0
-624 -1379 0
-625 -1380 0
-626 -811 0
-627 -812 0
-628 -813 0
-629 -814 0
-630 -815 0
-626 -1121 0
-627 -1122 0
-628 -1123 0
-629 -1124 0
-630 -1125 0
-626 -1306 0
-627 -1307 0
-628 -1308 0
-629 -1309 0
-630 -1310 0
-626 -1391 0
-627 -1392 0
-628 -1393 0
-629 -1394 0
-630 -1395 0
-626 -1426 0
-627 -1427 0
-628 -1428 0
-629 -1429 0
-630 -1430 0
-631 -711 0
-632 -712 0
-633 -713 0
-634 -714 0
-635 -715 0
-631 -841 0
-632 -842 0
-633 -843 0
-634 -844 0
-635 -845 0
-631 -966 0
-632 -967 0
-633 -968 0
-634 -969 0
-635 -970 0
-631 -1401 0
-632 -1402 0
-633 -1403 0
-634 -1404 0
-635 -1405 0
-636 -641 0
-637 -642 0
-638 -643 0
-639 -644 0
-640 -645 0
-636 -866 0
-637 -867 0
-638 -868 0
-639 -869 0
-640 -870 0
-636 -1001 0
-637 -1002 0
-638 -1003 0
-639 -1004 0
-640 -1005 0
-636 -1406 0
-637 -1407 0
-638 -1408 0
-639 -1409 0
-640 -1410 0
-641 -716 0
-642 -717 0
-643 -718 0
-644 -719 0
-645 -720 0
-641 -861 0
-642 -862 0
-643 -863 0
-644 -864 0
-645 -865 0
-646 -651 0
-647 -652 0
-648 -653 0
-649 -654 0
-650 -655 0
-646 -711 0
-647 -712 0
-648 -713 0
-649 -714 0
-650 -715 0
-646 -886 0
-647 -887 0
-648 -888 0
-649 -889 0
-650 -890 0
-646 -1031 0
-647 -1032 0
-648 -1033 0
-649 -1034 0
-650 -1035 0
-646 -1416 0
-647 -1417 0
-648 -1418 0
-649 -1419 0
-650 -1420 0
-646 -1596 0
-647 -1597 0
-648 -1598 0
-649 -1599 0
-650 -1600 0
-651 -706 0
-652 -707 0
-653 -708 0
-654 -709 0
-655 -710 0
-651 -881 0
-652 -882 0
-653 -883 0
-654 -884 0
-655 -885 0
-656 -761 0
-657 -762 0
-658 -763 0
-659 -764 0
-660 -765 0
-656 -1251 0
-657 -1252 0
-658 -1253 0
-659 -1254 0
-660 -1255 0
-656 -1396 0
-657 -1397 0
-658 -1398 0
-659 -1399 0
-660 -1400 0
-656 -1486 0
-657 -1487 0
-658 -1488 0
-659 -1489 0
-660 -1490 0
-656 -1511 0
-657 -1512 0
-658 -1513 0
-659 -1514 0
-660 -1515 0
-661 -801 0
-662 -802 0
-663 -803 0
-664 -804 0
-665 -805 0
-661 -1486 0
-662 -1487 0
-663 -1488 0
-664 -1489 0
-665 -1490 0
-666 -746 0
-667 -747 0
-668 -748 0
-669 -749 0
-670 -750 0
-666 -1216 0
-667 -1217 0
-668 -1218 0
-669 -1219 0
-670 -1220 0
-666 -1401 0
-667 -1402 0
-668 -1403 0
-669 -1404 0
-670 -1405 0
-666 -1491 0
-667 -1492 0
-668 -1493 0
-669 -1494 0
-670 -1495 0
-666 -1556 0
-667 -1557 0
-668 -1558 0
-669 -1559 0
-670 -1560 0
-671 -781 0
-672 -782 0
-673 -783 0
-674 -784 0
-675 -785 0
-671 -1211 0
-672 -1212 0
-673 -1213 0
-674 -1214 0
-675 -1215 0
-671 -1406 0
-672 -1407 0
-673 -1408 0
-674 -1409 0
-675 -1410 0
-671 -1611 0
-672 -1612 0
-673 -1613 0
-674 -1614 0
-675 -1615 0
-676 -786 0
-677 -787 0
-678 -788 0
-679 -789 0
-680 -790 0
-676 -1221 0
-677 -1222 0
-678 -1223 0
-679 -1224 0
-680 -1225 0
-676 -1496 0
-677 -1497 0
-678 -1498 0
-679 -1499 0
-680 -1500 0
-681 -766 0
-682 -767 0
-683 -768 0
-684 -769 0
-685 -770 0
-681 -1236 0
-682 -1237 0
-683 -1238 0
-684 -1239 0
-685 -1240 0
-681 -1411 0
-682 -1412 0
-683 -1413 0
-684 -1414 0
-685 -1415 0
-681 -1496 0
-682 -1497 0
-683 -1498 0
-684 -1499 0
-685 -1500 0
-686 -801 0
-687 -802 0
-688 -803 0
-689 -804 0
-690 -805 0
-686 -1231 0
-687 -1232 0
-688 -1233 0
-689 -1234 0
-690 -1235 0
-686 -1416 0
-687 -1417 0
-688 -1418 0
-689 -1419 0
-690 -1420 0
-686 -1501 0
-687 -1502 0
-688 -1503 0
-689 -1504 0
-690 -1505 0
-691 -781 0
-692 -782 0
-693 -783 0
-694 -784 0
-695 -785 0
-691 -1246 0
-692 -1247 0
-693 -1248 0
-694 -1249 0
-695 -1250 0
-696 -746 0
-697 -747 0
-698 -748 0
-699 -749 0
-700 -750 0
-696 -1241 0
-697 -1242 0
-698 -1243 0
-699 -1244 0
-700 -1245 0
-696 -1506 0
-697 -1507 0
-698 -1508 0
-699 -1509 0
-700 -1510 0
-701 -786 0
-702 -787 0
-703 -788 0
-704 -789 0
-705 -790 0
-701 -1196 0
-702 -1197 0
-703 -1198 0
-704 -1199 0
-705 -1200 0
-701 -1421 0
-702 -1422 0
-703 -1423 0
-704 -1424 0
-705 -1425 0
-701 -1506 0
-702 -1507 0
-703 -1508 0
-704 -1509 0
-705 -1510 0
-701 -1521 0
-702 -1522 0
-703 -1523 0
-704 -1524 0
-705 -1525 0
-701 -1621 0
-702 -1622 0
-703 -1623 0
-704 -1624 0
-705 -1625 0
-706 -1306 0
-707 -1307 0
-708 -1308 0
-709 -1309 0
-710 -1310 0
-706 -1321 0
-707 -1322 0
-708 -1323 0
-709 -1324 0
-710 -1325 0
-706 -1581 0
-707 -1582 0
-708 -1583 0
-709 -1584 0
-710 -1585 0
-711 -1336 0
-712 -1337 0
-713 -1338 0
-714 -1339 0
-715 -1340 0
-716 -1366 0
-717 -1367 0
-718 -1368 0
-719 -1369 0
-720 -1370 0
-716 -1381 0
-717 -1382 0
-718 -1383 0
-719 -1384 0
-720 -1385 0
-716 -1601 0
-717 -1602 0
-718 -1603 0
-719 -1604 0
-720 -1605 0
-721 -831 0
-722 -832 0
-723 -833 0
-724 -834 0
-725 -835 0
-721 -1511 0
-722 -1512 0
-723 -1513 0
-724 -1514 0
-725 -1515 0
-726 -811 0
-727 -812 0
-728 -813 0
-729 -814 0
-730 -815 0
-726 -1156 0
-727 -1157 0
-728 -1158 0
-729 -1159 0
-730 -1160 0
-731 -826 0
-732 -827 0
-733 -828 0
-734 -829 0
-735 -830 0
-731 -1161 0
-732 -1162 0
-733 -1163 0
-734 -1164 0
-735 -1165 0
-731 -1171 0
-732 -1172 0
-733 -1173 0
-734 -1174 0
-735 -1175 0
-736 -821 0
-737 -822 0
-738 -823 0
-739 -824 0
-740 -825 0
-736 -1166 0
-737 -1167 0
-738 -1168 0
-739 -1169 0
-740 -1170 0
-736 -1516 0
-737 -1517 0
-738 -1518 0
-739 -1519 0
-740 -1520 0
-736 -1571 0
-737 -1572 0
-738 -1573 0
-739 -1574 0
-740 -1575 0
-741 -1136 0
-742 -1137 0
-743 -1138 0
-744 -1139 0
-745 -1140 0
-741 -1176 0
-742 -1177 0
-743 -1178 0
-744 -1179 0
-745 -1180 0
-741 -1521 0
-742 -1522 0
-743 -1523 0
-744 -1524 0
-745 -1525 0
-746 -846 0
-747 -847 0
-748 -848 0
-749 -849 0
-750 -850 0
-746 -886 0
-747 -887 0
-748 -888 0
-749 -889 0
-750 -890 0
-746 -1066 0
-747 -1067 0
-748 -1068 0
-749 -1069 0
-750 -1070 0
-746 -1421 0
-747 -1422 0
-748 -1423 0
-749 -1424 0
-750 -1425 0
-751 -851 0
-752 -852 0
-753 -853 0
-754 -854 0
-755 -855 0
-751 -891 0
-752 -892 0
-753 -893 0
-754 -894 0
-755 -895 0
-751 -1131 0
-752 -1132 0
-753 -1133 0
-754 -1134 0
-755 -1135 0
-751 -1146 0
-752 -1147 0
-753 -1148 0
-754 -1149 0
-755 -1150 0
-751 -1511 0
-752 -1512 0
-753 -1513 0
-754 -1514 0
-755 -1515 0
-756 -836 0
-757 -837 0
-758 -838 0
-759 -839 0
-760 -840 0
-756 -856 0
-757 -857 0
-758 -858 0
-759 -859 0
-760 -860 0
-756 -1076 0
-757 -1077 0
-758 -1078 0
-759 -1079 0
-760 -1080 0
-756 -1136 0
-757 -1137 0
-758 -1138 0
-759 -1139 0
-760 -1140 0
-761 -841 0
-762 -842 0
-763 -843 0
-764 -844 0
-765 -845 0
-761 -861 0
-762 -862 0
-763 -863 0
-764 -864 0
-765 -865 0
-761 -1051 0
-762 -1052 0
-763 -1053 0
-764 -1054 0
-765 -1055 0
-761 -1141 0
-762 -1142 0
-763 -1143 0
-764 -1144 0
-765 -1145 0
-761 -1406 0
-762 -1407 0
-763 -1408 0
-764 -1409 0
-765 -1410 0
-766 -846 0
-767 -847 0
-768 -848 0
-769 -849 0
-770 -850 0
-766 -866 0
-767 -867 0
-768 -868 0
-769 -869 0
-770 -870 0
-766 -1096 0
-767 -1097 0
-768 -1098 0
-769 -1099 0
-770 -1100 0
-766 -1161 0
-767 -1162 0
-768 -1163 0
-769 -1164 0
-770 -1165 0
-766 -1401 0
-767 -1402 0
-768 -1403 0
-769 -1404 0
-770 -1405 0
-771 -851 0
-772 -852 0
-773 -853 0
-774 -854 0
-775 -855 0
-771 -871 0
-772 -872 0
-773 -873 0
-774 -874 0
-775 -875 0
-771 -1071 0
-772 -1072 0
-773 -1073 0
-774 -1074 0
-775 -1075 0
-771 -1166 0
-772 -1167 0
-773 -1168 0
-774 -1169 0
-775 -1170 0
-776 -1106 0
-777 -1107 0
-778 -1108 0
-779 -1109 0
-780 -1110 0
-781 -861 0
-782 -862 0
-783 -863 0
-784 -864 0
-785 -865 0
-781 -881 0
-782 -882 0
-783 -883 0
-784 -884 0
-785 -885 0
-781 -1081 0
-782 -1082 0
-783 -1083 0
-784 -1084 0
-785 -1085 0
-781 -1156 0
-782 -1157 0
-783 -1158 0
-784 -1159 0
-785 -1160 0
-781 -1416 0
-782 -1417 0
-783 -1418 0
-784 -1419 0
-785 -1420 0
-786 -866 0
-787 -867 0
-788 -868 0
-789 -869 0
-790 -870 0
-786 -886 0
-787 -887 0
-788 -888 0
-789 -889 0
-790 -890 0
-786 -1126 0
-787 -1127 0
-788 -1128 0
-789 -1129 0
-790 -1130 0
-786 -1411 0
-787 -1412 0
-788 -1413 0
-789 -1414 0
-790 -1415 0
-791 -871 0
-792 -872 0
-793 -873 0
-794 -874 0
-795 -875 0
-791 -891 0
-792 -892 0
-793 -893 0
-794 -894 0
-795 -895 0
-791 -1101 0
-792 -1102 0
-793 -1103 0
-794 -1104 0
-795 -1105 0
-791 -1181 0
-792 -1182 0
-793 -1183 0
-794 -1184 0
-795 -1185 0
-791 -1516 0
-792 -1517 0
-793 -1518 0
-794 -1519 0
-795 -1520 0
-791 -1586 0
-792 -1587 0
-793 -1588 0
-794 -1589 0
-795 -1590 0
-796 -836 0
-797 -837 0
-798 -838 0
-799 -839 0
-800 -840 0
-796 -876 0
-797 -877 0
-798 -878 0
-799 -879 0
-800 -880 0
-796 -1046 0
-797 -1047 0
-798 -1048 0
-799 -1049 0
-800 -1050 0
-796 -1171 0
-797 -1172 0
-798 -1173 0
-799 -1174 0
-800 -1175 0
-796 -1521 0
-797 -1522 0
-798 -1523 0
-799 -1524 0
-800 -1525 0
-796 -1526 0
-797 -1527 0
-798 -1528 0
-799 -1529 0
-800 -1530 0
-801 -841 0
-802 -842 0
-803 -843 0
-804 -844 0
-805 -845 0
-801 -1111 0
-802 -1112 0
-803 -1113 0
-804 -1114 0
-805 -1115 0
-801 -1396 0
-802 -1397 0
-803 -1398 0
-804 -1399 0
-805 -1400 0
-801 -1571 0
-802 -1572 0
-803 -1573 0
-804 -1574 0
-805 -1575 0
-806 -911 0
-807 -912 0
-808 -913 0
-809 -914 0
-810 -915 0
-806 -1196 0
-807 -1197 0
-808 -1198 0
-809 -1199 0
-810 -1200 0
-806 -1321 0
-807 -1322 0
-808 -1323 0
-809 -1324 0
-810 -1325 0
-806 -1491 0
-807 -1492 0
-808 -1493 0
-809 -1494 0
-810 -1495 0
-806 -1556 0
-807 -1557 0
-808 -1558 0
-809 -1559 0
-810 -1560 0
-806 -1591 0
-807 -1592 0
-808 -1593 0
-809 -1594 0
-810 -1595 0
-811 -896 0
-812 -897 0
-813 -898 0
-814 -899 0
-815 -900 0
-811 -1211 0
-812 -1212 0
-813 -1213 0
-814 -1214 0
-815 -1215 0
-816 -931 0
-817 -932 0
-818 -933 0
-819 -934 0
-820 -935 0
-816 -1216 0
-817 -1217 0
-818 -1218 0
-819 -1219 0
-820 -1220 0
-816 -1496 0
-817 -1497 0
-818 -1498 0
-819 -1499 0
-820 -1500 0
-821 -916 0
-822 -917 0
-823 -918 0
-824 -919 0
-825 -920 0
-821 -1231 0
-822 -1232 0
-823 -1233 0
-824 -1234 0
-825 -1235 0
-821 -1336 0
-822 -1337 0
-823 -1338 0
-824 -1339 0
-825 -1340 0
-821 -1611 0
-822 -1612 0
-823 -1613 0
-824 -1614 0
-825 -1615 0
-821 -1616 0
-822 -1617 0
-823 -1618 0
-824 -1619 0
-825 -1620 0
-826 -951 0
-827 -952 0
-828 -953 0
-829 -954 0
-830 -955 0
-826 -1236 0
-827 -1237 0
-828 -1238 0
-829 -1239 0
-830 -1240 0
-826 -1381 0
-827 -1382 0
-828 -1383 0
-829 -1384 0
-830 -1385 0
-831 -936 0
-832 -937 0
-833 -938 0
-834 -939 0
-835 -940 0
-831 -1251 0
-832 -1252 0
-833 -1253 0
-834 -1254 0
-835 -1255 0
-831 -1366 0
-832 -1367 0
-833 -1368 0
-834 -1369 0
-835 -1370 0
-836 -1296 0
-837 -1297 0
-838 -1298 0
-839 -1299 0
-840 -1300 0
-836 -1531 0
-837 -1532 0
-838 -1533 0
-839 -1534 0
-840 -1535 0
-836 -1576 0
-837 -1577 0
-838 -1578 0
-839 -1579 0
-840 -1580 0
-841 -1146 0
-842 -1147 0
-843 -1148 0
-844 -1149 0
-845 -1150 0
-841 -1266 0
-842 -1267 0
-843 -1268 0
-844 -1269 0
-845 -1270 0
-841 -1396 0
-842 -1397 0
-843 -1398 0
-844 -1399 0
-845 -1400 0
-846 -1136 0
-847 -1137 0
-848 -1138 0
-849 -1139 0
-850 -1140 0
-846 -1261 0
-847 -1262 0
-848 -1263 0
-849 -1264 0
-850 -1265 0
-846 -1401 0
-847 -1402 0
-848 -1403 0
-849 -1404 0
-850 -1405 0
-846 -1591 0
-847 -1592 0
-848 -1593 0
-849 -1594 0
-850 -1595 0
-851 -1141 0
-852 -1142 0
-853 -1143 0
-854 -1144 0
-855 -1145 0
-851 -1536 0
-852 -1537 0
-853 -1538 0
-854 -1539 0
-855 -1540 0
-851 -1596 0
-852 -1597 0
-853 -1598 0
-854 -1599 0
-855 -1600 0
-856 -1161 0
-857 -1162 0
-858 -1163 0
-859 -1164 0
-860 -1165 0
-856 -1541 0
-857 -1542 0
-858 -1543 0
-859 -1544 0
-860 -1545 0
-861 -1166 0
-862 -1167 0
-863 -1168 0
-864 -1169 0
-865 -1170 0
-861 -1276 0
-862 -1277 0
-863 -1278 0
-864 -1279 0
-865 -1280 0
-861 -1406 0
-862 -1407 0
-863 -1408 0
-864 -1409 0
-865 -1410 0
-861 -1616 0
-862 -1617 0
-863 -1618 0
-864 -1619 0
-865 -1620 0
-866 -1151 0
-867 -1152 0
-868 -1153 0
-869 -1154 0
-870 -1155 0
-866 -1271 0
-867 -1272 0
-868 -1273 0
-869 -1274 0
-870 -1275 0
-866 -1411 0
-867 -1412 0
-868 -1413 0
-869 -1414 0
-870 -1415 0
-871 -1156 0
-872 -1157 0
-873 -1158 0
-874 -1159 0
-875 -1160 0
-871 -1281 0
-872 -1282 0
-873 -1283 0
-874 -1284 0
-875 -1285 0
-876 -1176 0
-877 -1177 0
-878 -1178 0
-879 -1179 0
-880 -1180 0
-876 -1546 0
-877 -1547 0
-878 -1548 0
-879 -1549 0
-880 -1550 0
-881 -1181 0
-882 -1182 0
-883 -1183 0
-884 -1184 0
-885 -1185 0
-881 -1291 0
-882 -1292 0
-883 -1293 0
-884 -1294 0
-885 -1295 0
-881 -1416 0
-882 -1417 0
-883 -1418 0
-884 -1419 0
-885 -1420 0
-886 -1171 0
-887 -1172 0
-888 -1173 0
-889 -1174 0
-890 -1175 0
-886 -1286 0
-887 -1287 0
-888 -1288 0
-889 -1289 0
-890 -1290 0
-886 -1421 0
-887 -1422 0
-888 -1423 0
-889 -1424 0
-890 -1425 0
-886 -1566 0
-887 -1567 0
-888 -1568 0
-889 -1569 0
-890 -1570 0
-886 -1596 0
-887 -1597 0
-888 -1598 0
-889 -1599 0
-890 -1600 0
-891 -1256 0
-892 -1257 0
-893 -1258 0
-894 -1259 0
-895 -1260 0
-891 -1551 0
-892 -1552 0
-893 -1553 0
-894 -1554 0
-895 -1555 0
-891 -1571 0
-892 -1572 0
-893 -1573 0
-894 -1574 0
-895 -1575 0
-891 -1606 0
-892 -1607 0
-893 -1608 0
-894 -1609 0
-895 -1610 0
-896 -971 0
-897 -972 0
-898 -973 0
-899 -974 0
-900 -975 0
-896 -1031 0
-897 -1032 0
-898 -1033 0
-899 -1034 0
-900 -1035 0
-896 -1181 0
-897 -1182 0
-898 -1183 0
-899 -1184 0
-900 -1185 0
-896 -1391 0
-897 -1392 0
-898 -1393 0
-899 -1394 0
-900 -1395 0
-896 -1606 0
-897 -1607 0
-898 -1608 0
-899 -1609 0
-900 -1610 0
-901 -956 0
-902 -957 0
-903 -958 0
-904 -959 0
-905 -960 0
-901 -981 0
-902 -982 0
-903 -983 0
-904 -984 0
-905 -985 0
-901 -1491 0
-902 -1492 0
-903 -1493 0
-904 -1494 0
-905 -1495 0
-906 -961 0
-907 -962 0
-908 -963 0
-909 -964 0
-910 -965 0
-906 -986 0
-907 -987 0
-908 -988 0
-909 -989 0
-910 -990 0
-906 -1486 0
-907 -1487 0
-908 -1488 0
-909 -1489 0
-910 -1490 0
-911 -971 0
-912 -972 0
-913 -973 0
-914 -974 0
-915 -975 0
-911 -1151 0
-912 -1152 0
-913 -1153 0
-914 -1154 0
-915 -1155 0
-911 -1491 0
-912 -1492 0
-913 -1493 0
-914 -1494 0
-915 -1495 0
-911 -1576 0
-912 -1577 0
-913 -1578 0
-914 -1579 0
-915 -1580 0
-916 -976 0
-917 -977 0
-918 -978 0
-919 -979 0
-920 -980 0
-916 -1146 0
-917 -1147 0
-918 -1148 0
-919 -1149 0
-920 -1150 0
-916 -1156 0
-917 -1157 0
-918 -1158 0
-919 -1159 0
-920 -1160 0
-921 -1006 0
-922 -1007 0
-923 -1008 0
-924 -1009 0
-925 -1010 0
-921 -1496 0
-922 -1497 0
-923 -1498 0
-924 -1499 0
-925 -1500 0
-926 -991 0
-927 -992 0
-928 -993 0
-929 -994 0
-930 -995 0
-931 -996 0
-932 -997 0
-933 -998 0
-934 -999 0
-935 -1000 0
-931 -1021 0
-932 -1022 0
-933 -1023 0
-934 -1024 0
-935 -1025 0
-931 -1161 0
-932 -1162 0
-933 -1163 0
-934 -1164 0
-935 -1165 0
-931 -1171 0
-932 -1172 0
-933 -1173 0
-934 -1174 0
-935 -1175 0
-931 -1496 0
-932 -1497 0
-933 -1498 0
-934 -1499 0
-935 -1500 0
-931 -1601 0
-932 -1602 0
-933 -1603 0
-934 -1604 0
-935 -1605 0
-936 -1001 0
-937 -1002 0
-938 -1003 0
-939 -1004 0
-940 -1005 0
-936 -1026 0
-937 -1027 0
-938 -1028 0
-939 -1029 0
-940 -1030 0
-936 -1166 0
-937 -1167 0
-938 -1168 0
-939 -1169 0
-940 -1170 0
-936 -1501 0
-937 -1502 0
-938 -1503 0
-939 -1504 0
-940 -1505 0
-936 -1571 0
-937 -1572 0
-938 -1573 0
-939 -1574 0
-940 -1575 0
-941 -1506 0
-942 -1507 0
-943 -1508 0
-944 -1509 0
-945 -1510 0
-946 -956 0
-947 -957 0
-948 -958 0
-949 -959 0
-950 -960 0
-946 -1501 0
-947 -1502 0
-948 -1503 0
-949 -1504 0
-950 -1505 0
-951 -966 0
-952 -967 0
-953 -968 0
-954 -969 0
-955 -970 0
-951 -1026 0
-952 -1027 0
-953 -1028 0
-954 -1029 0
-955 -1030 0
-951 -1136 0
-952 -1137 0
-953 -1138 0
-954 -1139 0
-955 -1140 0
-951 -1176 0
-952 -1177 0
-953 -1178 0
-954 -1179 0
-955 -1180 0
-951 -1581 0
-952 -1582 0
-953 -1583 0
-954 -1584 0
-955 -1585 0
-956 -1051 0
-957 -1052 0
-958 -1053 0
-959 -1054 0
-960 -1055 0
-956 -1126 0
-957 -1127 0
-958 -1128 0
-959 -1129 0
-960 -1130 0
-956 -1261 0
-957 -1262 0
-958 -1263 0
-959 -1264 0
-960 -1265 0
-956 -1291 0
-957 -1292 0
-958 -1293 0
-959 -1294 0
-960 -1295 0
-961 -1061 0
-962 -1062 0
-963 -1063 0
-964 -1064 0
-965 -1065 0
-961 -1481 0
-962 -1482 0
-963 -1483 0
-964 -1484 0
-965 -1485 0
-961 -1531 0
-962 -1532 0
-963 -1533 0
-964 -1534 0
-965 -1535 0
-966 -1441 0
-967 -1442 0
-968 -1443 0
-969 -1444 0
-970 -1445 0
-966 -1591 0
-967 -1592 0
-968 -1593 0
-969 -1594 0
-970 -1595 0
-971 -1046 0
-972 -1047 0
-973 -1048 0
-974 -1049 0
-975 -1050 0
-971 -1071 0
-972 -1072 0
-973 -1073 0
-974 -1074 0
-975 -1075 0
-971 -1256 0
-972 -1257 0
-973 -1258 0
-974 -1259 0
-975 -1260 0
-971 -1531 0
-972 -1532 0
-973 -1533 0
-974 -1534 0
-975 -1535 0
-971 -1536 0
-972 -1537 0
-973 -1538 0
-974 -1539 0
-975 -1540 0
-976 -1436 0
-977 -1437 0
-978 -1438 0
-979 -1439 0
-980 -1440 0
-981 -1451 0
-982 -1452 0
-983 -1453 0
-984 -1454 0
-985 -1455 0
-981 -1536 0
-982 -1537 0
-983 -1538 0
-984 -1539 0
-985 -1540 0
-986 -1066 0
-987 -1067 0
-988 -1068 0
-989 -1069 0
-990 -1070 0
-986 -1271 0
-987 -1272 0
-988 -1273 0
-989 -1274 0
-990 -1275 0
-991 -1091 0
-992 -1092 0
-993 -1093 0
-994 -1094 0
-995 -1095 0
-991 -1446 0
-992 -1447 0
-993 -1448 0
-994 -1449 0
-995 -1450 0
-991 -1541 0
-992 -1542 0
-993 -1543 0
-994 -1544 0
-995 -1545 0
-996 -1076 0
-997 -1077 0
-998 -1078 0
-999 -1079 0
-1000 -1080 0
-996 -1101 0
-997 -1102 0
-998 -1103 0
-999 -1104 0
-1000 -1105 0
-996 -1541 0
-997 -1542 0
-998 -1543 0
-999 -1544 0
-1000 -1545 0
-1001 -1616 0
-1002 -1617 0
-1003 -1618 0
-1004 -1619 0
-1005 -1620 0
-1006 -1086 0
-1007 -1087 0
-1008 -1088 0
-1009 -1089 0
-1010 -1090 0
-1011 -1096 0
-1012 -1097 0
-1013 -1098 0
-1014 -1099 0
-1015 -1100 0
-1011 -1111 0
-1012 -1112 0
-1013 -1113 0
-1014 -1114 0
-1015 -1115 0
-1011 -1276 0
-1012 -1277 0
-1013 -1278 0
-1014 -1279 0
-1015 -1280 0
-1011 -1286 0
-1012 -1287 0
-1013 -1288 0
-1014 -1289 0
-1015 -1290 0
-1016 -1466 0
-1017 -1467 0
-1018 -1468 0
-1019 -1469 0
-1020 -1470 0
-1016 -1546 0
-1017 -1547 0
-1018 -1548 0
-1019 -1549 0
-1020 -1550 0
-1021 -1476 0
-1022 -1477 0
-1023 -1478 0
-1024 -1479 0
-1025 -1480 0
-1026 -1106 0
-1027 -1107 0
-1028 -1108 0
-1029 -1109 0
-1030 -1110 0
-1026 -1131 0
-1027 -1132 0
-1028 -1133 0
-1029 -1134 0
-1030 -1135 0
-1026 -1281 0
-1027 -1282 0
-1028 -1283 0
-1029 -1284 0
-1030 -1285 0
-1026 -1546 0
-1027 -1547 0
-1028 -1548 0
-1029 -1549 0
-1030 -1550 0
-1026 -1551 0
-1027 -1552 0
-1028 -1553 0
-1029 -1554 0
-1030 -1555 0
-1031 -1471 0
-1032 -1472 0
-1033 -1473 0
-1034 -1474 0
-1035 -1475 0
-1036 -1116 0
-1037 -1117 0
-1038 -1118 0
-1039 -1119 0
-1040 -1120 0
-1036 -1431 0
-1037 -1432 0
-1038 -1433 0
-1039 -1434 0
-1040 -1435 0
-1041 -1191 0
-1042 -1192 0
-1043 -1193 0
-1044 -1194 0
-1045 -1195 0
-1041 -1291 0
-1042 -1292 0
-1043 -1293 0
-1044 -1294 0
-1045 -1295 0
-1041 -1526 0
-1042 -1527 0
-1043 -1528 0
-1044 -1529 0
-1045 -1530 0
-1046 -1246 0
-1047 -1247 0
-1048 -1248 0
-1049 -1249 0
-1050 -1250 0
-1046 -1311 0
-1047 -1312 0
-1048 -1313 0
-1049 -1314 0
-1050 -1315 0
-1046 -1521 0
-1047 -1522 0
-1048 -1523 0
-1049 -1524 0
-1050 -1525 0
-1046 -1531 0
-1047 -1532 0
-1048 -1533 0
-1049 -1534 0
-1050 -1535 0
-1051 -1186 0
-1052 -1187 0
-1053 -1188 0
-1054 -1189 0
-1055 -1190 0
-1056 -1196 0
-1057 -1197 0
-1058 -1198 0
-1059 -1199 0
-1060 -1200 0
-1056 -1321 0
-1057 -1322 0
-1058 -1323 0
-1059 -1324 0
-1060 -1325 0
-1056 -1536 0
-1057 -1537 0
-1058 -1538 0
-1059 -1539 0
-1060 -1540 0
-1056 -1596 0
-1057 -1597 0
-1058 -1598 0
-1059 -1599 0
-1060 -1600 0
-1061 -1211 0
-1062 -1212 0
-1063 -1213 0
-1064 -1214 0
-1065 -1215 0
-1061 -1531 0
-1062 -1532 0
-1063 -1533 0
-1064 -1534 0
-1065 -1535 0
-1066 -1201 0
-1067 -1202 0
-1068 -1203 0
-1069 -1204 0
-1070 -1205 0
-1066 -1326 0
-1067 -1327 0
-1068 -1328 0
-1069 -1329 0
-1070 -1330 0
-1071 -1221 0
-1072 -1222 0
-1073 -1223 0
-1074 -1224 0
-1075 -1225 0
-1071 -1316 0
-1072 -1317 0
-1073 -1318 0
-1074 -1319 0
-1075 -1320 0
-1071 -1536 0
-1072 -1537 0
-1073 -1538 0
-1074 -1539 0
-1075 -1540 0
-1076 -1206 0
-1077 -1207 0
-1078 -1208 0
-1079 -1209 0
-1080 -1210 0
-1076 -1341 0
-1077 -1342 0
-1078 -1343 0
-1079 -1344 0
-1080 -1345 0
-1076 -1541 0
-1077 -1542 0
-1078 -1543 0
-1079 -1544 0
-1080 -1545 0
-1081 -1226 0
-1082 -1227 0
-1083 -1228 0
-1084 -1229 0
-1085 -1230 0
-1081 -1331 0
-1082 -1332 0
-1083 -1333 0
-1084 -1334 0
-1085 -1335 0
-1086 -1216 0
-1087 -1217 0
-1088 -1218 0
-1089 -1219 0
-1090 -1220 0
-1086 -1351 0
-1087 -1352 0
-1088 -1353 0
-1089 -1354 0
-1090 -1355 0
-1091 -1231 0
-1092 -1232 0
-1093 -1233 0
-1094 -1234 0
-1095 -1235 0
-1091 -1336 0
-1092 -1337 0
-1093 -1338 0
-1094 -1339 0
-1095 -1340 0
-1096 -1191 0
-1097 -1192 0
-1098 -1193 0
-1099 -1194 0
-1100 -1195 0
-1096 -1221 0
-1097 -1222 0
-1098 -1223 0
-1099 -1224 0
-1100 -1225 0
-1096 -1356 0
-1097 -1357 0
-1098 -1358 0
-1099 -1359 0
-1100 -1360 0
-1101 -1241 0
-1102 -1242 0
-1103 -1243 0
-1104 -1244 0
-1105 -1245 0
-1106 -1226 0
-1107 -1227 0
-1108 -1228 0
-1109 -1229 0
-1110 -1230 0
-1106 -1371 0
-1107 -1372 0
-1108 -1373 0
-1109 -1374 0
-1110 -1375 0
-1106 -1546 0
-1107 -1547 0
-1108 -1548 0
-1109 -1549 0
-1110 -1550 0
-1111 -1246 0
-1112 -1247 0
-1113 -1248 0
-1114 -1249 0
-1115 -1250 0
-1111 -1361 0
-1112 -1362 0
-1113 -1363 0
-1114 -1364 0
-1115 -1365 0
-1116 -1236 0
-1117 -1237 0
-1118 -1238 0
-1119 -1239 0
-1120 -1240 0
-1116 -1551 0
-1117 -1552 0
-1118 -1553 0
-1119 -1554 0
-1120 -1555 0
-1121 -1366 0
-1122 -1367 0
-1123 -1368 0
-1124 -1369 0
-1125 -1370 0
-1121 -1546 0
-1122 -1547 0
-1123 -1548 0
-1124 -1549 0
-1125 -1550 0
-1126 -1241 0
-1127 -1242 0
-1128 -1243 0
-1129 -1244 0
-1130 -1245 0
-1126 -1386 0
-1127 -1387 0
-1128 -1388 0
-1129 -1389 0
-1130 -1390 0
-1131 -1201 0
-1132 -1202 0
-1133 -1203 0
-1134 -1204 0
-1135 -1205 0
-1131 -1376 0
-1132 -1377 0
-1133 -1378 0
-1134 -1379 0
-1135 -1380 0
-1131 -1511 0
-1132 -1512 0
-1133 -1513 0
-1134 -1514 0
-1135 -1515 0
-1131 -1551 0
-1132 -1552 0
-1133 -1553 0
-1134 -1554 0
-1135 -1555 0
-1136 -1591 0
-1137 -1592 0
-1138 -1593 0
-1139 -1594 0
-1140 -1595 0
-1141 -1511 0
-1142 -1512 0
-1143 -1513 0
-1144 -1514 0
-1145 -1515 0
-1141 -1536 0
-1142 -1537 0
-1143 -1538 0
-1144 -1539 0
-1145 -1540 0
-1161 -1541 0
-1162 -1542 0
-1163 -1543 0
-1164 -1544 0
-1165 -1545 0
-1166 -1616 0
-1167 -1617 0
-1168 -1618 0
-1169 -1619 0
-1170 -1620 0
-1171 -1191 0
-1172 -1192 0
-1173 -1193 0
-1174 -1194 0
-1175 -1195 0
-1176 -1521 0
-1177 -1522 0
-1178 -1523 0
-1179 -1524 0
-1180 -1525 0
-1176 -1546 0
-1177 -1547 0
-1178 -1548 0
-1179 -1549 0
-1180 -1550 0
-1176 -1601 0
-1177 -1602 0
-1178 -1603 0
-1179 -1604 0
-1180 -1605 0
-1181 -1186 0
-1182 -1187 0
-1183 -1188 0
-1184 -1189 0
-1185 -1190 0
-1181 -1606 0
-1182 -1607 0
-1183 -1608 0
-1184 -1609 0
-1185 -1610 0
-1186 -1486 0
-1187 -1487 0
-1188 -1488 0
-1189 -1489 0
-1190 -1490 0
-1196 -1311 0
-1197 -1312 0
-1198 -1313 0
-1199 -1314 0
-1200 -1315 0
-1196 -1381 0
-1197 -1382 0
-1198 -1383 0
-1199 -1384 0
-1200 -1385 0
-1196 -1521 0
-1197 -1522 0
-1198 -1523 0
-1199 -1524 0
-1200 -1525 0
-1201 -1316 0
-1202 -1317 0
-1203 -1318 0
-1204 -1319 0
-1205 -1320 0
-1201 -1386 0
-1202 -1387 0
-1203 -1388 0
-1204 -1389 0
-1205 -1390 0
-1201 -1421 0
-1202 -1422 0
-1203 -1423 0
-1204 -1424 0
-1205 -1425 0
-1206 -1311 0
-1207 -1312 0
-1208 -1313 0
-1209 -1314 0
-1210 -1315 0
-1211 -1316 0
-1212 -1317 0
-1213 -1318 0
-1214 -1319 0
-1215 -1320 0
-1211 -1336 0
-1212 -1337 0
-1213 -1338 0
-1214 -1339 0
-1215 -1340 0
-1216 -1321 0
-1217 -1322 0
-1218 -1323 0
-1219 -1324 0
-1220 -1325 0
-1221 -1326 0
-1222 -1327 0
-1223 -1328 0
-1224 -1329 0
-1225 -1330 0
-1221 -1401 0
-1222 -1402 0
-1223 -1403 0
-1224 -1404 0
-1225 -1405 0
-1226 -1341 0
-1227 -1342 0
-1228 -1343 0
-1229 -1344 0
-1230 -1345 0
-1226 -1361 0
-1227 -1362 0
-1228 -1363 0
-1229 -1364 0
-1230 -1365 0
-1226 -1416 0
-1227 -1417 0
-1228 -1418 0
-1229 -1419 0
-1230 -1420 0
-1231 -1346 0
-1232 -1347 0
-1233 -1348 0
-1234 -1349 0
-1235 -1350 0
-1231 -1366 0
-1232 -1367 0
-1233 -1368 0
-1234 -1369 0
-1235 -1370 0
-1231 -1516 0
-1232 -1517 0
-1233 -1518 0
-1234 -1519 0
-1235 -1520 0
-1236 -1351 0
-1237 -1352 0
-1238 -1353 0
-1239 -1354 0
-1240 -1355 0
-1236 -1371 0
-1237 -1372 0
-1238 -1373 0
-1239 -1374 0
-1240 -1375 0
-1241 -1356 0
-1242 -1357 0
-1243 -1358 0
-1244 -1359 0
-1245 -1360 0
-1241 -1376 0
-1242 -1377 0
-1243 -1378 0
-1244 -1379 0
-1245 -1380 0
-1241 -1411 0
-1242 -1412 0
-1243 -1413 0
-1244 -1414 0
-1245 -1415 0
-1246 -1301 0
-1247 -1302 0
-1248 -1303 0
-1249 -1304 0
-1250 -1305 0
-1246 -1371 0
-1247 -1372 0
-1248 -1373 0
-1249 -1374 0
-1250 -1375 0
-1246 -1396 0
-1247 -1397 0
-1248 -1398 0
-1249 -1399 0
-1250 -1400 0
-1251 -1306 0
-1252 -1307 0
-1253 -1308 0
-1254 -1309 0
-1255 -1310 0
-1251 -1376 0
-1252 -1377 0
-1253 -1378 0
-1254 -1379 0
-1255 -1380 0
-1251 -1511 0
-1252 -1512 0
-1253 -1513 0
-1254 -1514 0
-1255 -1515 0
-1256 -1296 0
-1257 -1297 0
-1258 -1298 0
-1259 -1299 0
-1260 -1300 0
-1256 -1606 0
-1257 -1607 0
-1258 -1608 0
-1259 -1609 0
-1260 -1610 0
-1261 -1266 0
-1262 -1267 0
-1263 -1268 0
-1264 -1269 0
-1265 -1270 0
-1261 -1396 0
-1262 -1397 0
-1263 -1398 0
-1264 -1399 0
-1265 -1400 0
-1266 -1401 0
-1267 -1402 0
-1268 -1403 0
-1269 -1404 0
-1270 -1405 0
-1266 -1621 0
-1267 -1622 0
-1268 -1623 0
-1269 -1624 0
-1270 -1625 0
-1271 -1276 0
-1272 -1277 0
-1273 -1278 0
-1274 -1279 0
-1275 -1280 0
-1276 -1411 0
-1277 -1412 0
-1278 -1413 0
-1279 -1414 0
-1280 -1415 0
-1281 -1586 0
-1282 -1587 0
-1283 -1588 0
-1284 -1589 0
-1285 -1590 0
-1286 -1291 0
-1287 -1292 0
-1288 -1293 0
-1289 -1294 0
-1290 -1295 0
-1286 -1416 0
-1287 -1417 0
-1288 -1418 0
-1289 -1419 0
-1290 -1420 0
-1291 -1421 0
-1292 -1422 0
-1293 -1423 0
-1294 -1424 0
-1295 -1425 0
-1296 -1526 0
-1297 -1527 0
-1298 -1528 0
-1299 -1529 0
-1300 -1530 0
-1301 -1436 0
-1302 -1437 0
-1303 -1438 0
-1304 -1439 0
-1305 -1440 0
-1301 -1531 0
-1302 -1532 0
-1303 -1533 0
-1304 -1534 0
-1305 -1535 0
-1311 -1431 0
-1312 -1432 0
-1313 -1433 0
-1314 -1434 0
-1315 -1435 0
-1311 -1536 0
-1312 -1537 0
-1313 -1538 0
-1314 -1539 0
-1315 -1540 0
-1316 -1531 0
-1317 -1532 0
-1318 -1533 0
-1319 -1534 0
-1320 -1535 0
-1321 -1591 0
-1322 -1592 0
-1323 -1593 0
-1324 -1594 0
-1325 -1595 0
-1326 -1536 0
-1327 -1537 0
-1328 -1538 0
-1329 -1539 0
-1330 -1540 0
-1331 -1456 0
-1332 -1457 0
-1333 -1458 0
-1334 -1459 0
-1335 -1460 0
-1336 -1461 0
-1337 -1462 0
-1338 -1463 0
-1339 -1464 0
-1340 -1465 0
-1336 -1616 0
-1337 -1617 0
-1338 -1618 0
-1339 -1619 0
-1340 -1620 0
-1341 -1451 0
-1342 -1452 0
-1343 -1453 0
-1344 -1454 0
-1345 -1455 0
-1346 -1466 0
-1347 -1467 0
-1348 -1468 0
-1349 -1469 0
-1350 -1470 0
-1346 -1541 0
-1347 -1542 0
-1348 -1543 0
-1349 -1544 0
-1350 -1545 0
-1361 -1471 0
-1362 -1472 0
-1363 -1473 0
-1364 -1474 0
-1365 -1475 0
-1361 -1546 0
-1362 -1547 0
-1363 -1548 0
-1364 -1549 0
-1365 -1550 0
-1371 -1551 0
-1372 -1552 0
-1373 -1553 0
-1374 -1554 0
-1375 -1555 0
-1376 -1481 0
-1377 -1482 0
-1378 -1483 0
-1379 -1484 0
-1380 -1485 0
-1376 -1546 0
-1377 -1547 0
-1378 -1548 0
-1379 -1549 0
-1380 -1550 0
-1381 -1566 0
-1382 -1567 0
-1383 -1568 0
-1384 -1569 0
-1385 -1570 0
-1386 -1476 0
-1387 -1477 0
-1388 -1478 0
-1389 -1479 0
-1390 -1480 0
-1386 -1551 0
-1387 -1552 0
-1388 -1553 0
-1389 -1554 0
-1390 -1555 0
-1391 -1396 0
-1392 -1397 0
-1393 -1398 0
-1394 -1399 0
-1395 -1400 0
-1391 -1571 0
-1392 -1572 0
-1393 -1573 0
-1394 -1574 0
-1395 -1575 0
-1401 -1491 0
-1402 -1492 0
-1403 -1493 0
-1404 -1494 0
-1405 -1495 0
-1411 -1496 0
-1412 -1497 0
-1413 -1498 0
-1414 -1499 0
-1415 -1500 0
-1411 -1601 0
-1412 -1602 0
-1413 -1603 0
-1414 -1604 0
-1415 -1605 0
-1416 -1501 0
-1417 -1502 0
-1418 -1503 0
-1419 -1504 0
-1420 -1505 0
-1421 -1506 0
-1422 -1507 0
-1423 -1508 0
-1424 -1509 0
-1425 -1510 0
-1421 -1581 0
-1422 -1582 0
-1423 -1583 0
-1424 -1584 0
-1425 -1585 0
-1431 -1481 0
-1432 -1482 0
-1433 -1483 0
-1434 -1484 0
-1435 -1485 0
-1446 -1451 0
-1447 -1452 0
-1448 -1453 0
-1449 -1454 0
-1450 -1455 0
-1471 -1476 0
-1472 -1477 0
-1473 -1478 0
-1474 -1479 0
-1475 -1480 0
-1511 -1606 0
-1512 -1607 0
-1513 -1608 0
-1514 -1609 0
-1515 -1610 0
-1516 -1571 0
-1517 -1572 0
-1518 -1573 0
-1519 -1574 0
-1520 -1575 0
-1516 -1586 0
-1517 -1587 0
-1518 -1588 0
-1519 -1589 0
-1520 -1590 0
-1521 -1526 0
-1522 -1527 0
-1523 -1528 0
-1524 -1529 0
-1525 -1530 0
-1526 -1546 0
-1527 -1547 0
-1528 -1548 0
-1529 -1549 0
-1530 -1550 0
-1531 -1576 0
-1532 -1577 0
-1533 -1578 0
-1534 -1579 0
-1535 -1580 0
-1551 -1571 0
-1552 -1572 0
-1553 -1573 0
-1554 -1574 0
-1555 -1575 0
-1551 -1606 0
-1552 -1607 0
-1553 -1608 0
-1554 -1609 0
-1555 -1610 0
-1576 -1581 0
-1577 -1582 0
-1578 -1583 0
-1579 -1584 0
-1580 -1585 0
-1626 -1791 0
-1627 -1792 0
-1628 -1793 0
-1629 -1794 0
-1630 -1795 0
-1626 -1866 0
-1627 -1867 0
-1628 -1868 0
-1629 -1869 0
-1630 -1870 0
-1631 -1771 0
-1632 -1772 0
-1633 -1773 0
-1634 -1774 0
-1635 -1775 0
-1631 -1806 0
-1632 -1807 0
-1633 -1808 0
-1634 -1809 0
-1635 -1810 0
-1636 -1726 0
-1637 -1727 0
-1638 -1728 0
-1639 -1729 0
-1640 -1730 0
-1636 -1771 0
-1637 -1772 0
-1638 -1773 0
-1639 -1774 0
-1640 -1775 0
-1636 -1841 0
-1637 -1842 0
-1638 -1843 0
-1639 -1844 0
-1640 -1845 0
-1636 -1916 0
-1637 -1917 0
-1638 -1918 0
-1639 -1919 0
-1640 -1920 0
-1641 -1681 0
-1642 -1682 0
-1643 -1683 0
-1644 -1684 0
-1645 -1685 0
-1641 -1781 0
-1642 -1782 0
-1643 -1783 0
-1644 -1784 0
-1645 -1785 0
-1641 -1801 0
-1642 -1802 0
-1643 -1803 0
-1644 -1804 0
-1645 -1805 0
-1646 -1721 0
-1647 -1722 0
-1648 -1723 0
-1649 -1724 0
-1650 -1725 0
-1646 -1816 0
-1647 -1817 0
-1648 -1818 0
-1649 -1819 0
-1650 -1820 0
-1646 -1826 0
-1647 -1827 0
-1648 -1828 0
-1649 -1829 0
-1650 -1830 0
-1646 -1836 0
-1647 -1837 0
-1648 -1838 0
-1649 -1839 0
-1650 -1840 0
-1651 -1696 0
-1652 -1697 0
-1653 -1698 0
-1654 -1699 0
-1655 -1700 0
-1651 -1791 0
-1652 -1792 0
-1653 -1793 0
-1654 -1794 0
-1655 -1795 0
-1651 -1821 0
-1652 -1822 0
-1653 -1823 0
-1654 -1824 0
-1655 -1825 0
-1651 -1951 0
-1652 -1952 0
-1653 -1953 0
-1654 -1954 0
-1655 -1955 0
-1656 -1756 0
-1657 -1757 0
-1658 -1758 0
-1659 -1759 0
-1660 -1760 0
-1656 -1806 0
-1657 -1807 0
-1658 -1808 0
-1659 -1809 0
-1660 -1810 0
-1656 -1811 0
-1657 -1812 0
-1658 -1813 0
-1659 -1814 0
-1660 -1815 0
-1656 -1856 0
-1657 -1857 0
-1658 -1858 0
-1659 -1859 0
-1660 -1860 0
-1661 -1671 0
-1662 -1672 0
-1663 -1673 0
-1664 -1674 0
-1665 -1675 0
-1661 -1736 0
-1662 -1737 0
-1663 -1738 0
-1664 -1739 0
-1665 -1740 0
-1666 -1676 0
-1667 -1677 0
-1668 -1678 0
-1669 -1679 0
-1670 -1680 0
-1666 -1761 0
-1667 -1762 0
-1668 -1763 0
-1669 -1764 0
-1670 -1765 0
-1671 -1696 0
-1672 -1697 0
-1673 -1698 0
-1674 -1699 0
-1675 -1700 0
-1671 -1736 0
-1672 -1737 0
-1673 -1738 0
-1674 -1739 0
-1675 -1740 0
-1671 -1786 0
-1672 -1787 0
-1673 -1788 0
-1674 -1789 0
-1675 -1790 0
-1671 -1791 0
-1672 -1792 0
-1673 -1793 0
-1674 -1794 0
-1675 -1795 0
-1671 -1876 0
-1672 -1877 0
-1673 -1878 0
-1674 -1879 0
-1675 -1880 0
-1676 -1681 0
-1677 -1682 0
-1678 -1683 0
-1679 -1684 0
-1680 -1685 0
-1676 -1801 0
-1677 -1802 0
-1678 -1803 0
-1679 -1804 0
-1680 -1805 0
-1676 -1846 0
-1677 -1847 0
-1678 -1848 0
-1679 -1849 0
-1680 -1850 0
-1676 -1946 0
-1677 -1947 0
-1678 -1948 0
-1679 -1949 0
-1680 -1950 0
-1681 -1781 0
-1682 -1782 0
-1683 -1783 0
-1684 -1784 0
-1685 -1785 0
-1681 -1801 0
-1682 -1802 0
-1683 -1803 0
-1684 -1804 0
-1685 -1805 0
-1681 -1861 0
-1682 -1862 0
-1683 -1863 0
-1684 -1864 0
-1685 -1865 0
-1681 -1921 0
-1682 -1922 0
-1683 -1923 0
-1684 -1924 0
-1685 -1925 0
-1681 -1941 0
-1682 -1942 0
-1683 -1943 0
-1684 -1944 0
-1685 -1945 0
-1686 -1871 0
-1687 -1872 0
-1688 -1873 0
-1689 -1874 0
-1690 -1875 0
-1691 -1696 0
-1692 -1697 0
-1693 -1698 0
-1694 -1699 0
-1695 -1700 0
-1691 -1746 0
-1692 -1747 0
-1693 -1748 0
-1694 -1749 0
-1695 -1750 0
-1691 -1831 0
-1692 -1832 0
-1693 -1833 0
-1694 -1834 0
-1695 -1835 0
-1696 -1741 0
-1697 -1742 0
-1698 -1743 0
-1699 -1744 0
-1700 -1745 0
-1696 -1791 0
-1697 -1792 0
-1698 -1793 0
-1699 -1794 0
-1700 -1795 0
-1696 -1886 0
-1697 -1887 0
-1698 -1888 0
-1699 -1889 0
-1700 -1890 0
-1701 -1706 0
-1702 -1707 0
-1703 -1708 0
-1704 -1709 0
-1705 -1710 0
-1701 -1726 0
-1702 -1727 0
-1703 -1728 0
-1704 -1729 0
-1705 -1730 0
-1701 -1741 0
-1702 -1742 0
-1703 -1743 0
-1704 -1744 0
-1705 -1745 0
-1701 -1766 0
-1702 -1767 0
-1703 -1768 0
-1704 -1769 0
-1705 -1770 0
-1701 -1771 0
-1702 -1772 0
-1703 -1773 0
-1704 -1774 0
-1705 -1775 0
-1701 -1806 0
-1702 -1807 0
-1703 -1808 0
-1704 -1809 0
-1705 -1810 0
-1701 -1851 0
-1702 -1852 0
-1703 -1853 0
-1704 -1854 0
-1705 -1855 0
-1701 -1881 0
-1702 -1882 0
-1703 -1883 0
-1704 -1884 0
-1705 -1885 0
-1701 -1921 0
-1702 -1922 0
-1703 -1923 0
-1704 -1924 0
-1705 -1925 0
-1706 -1711 0
-1707 -1712 0
-1708 -1713 0
-1709 -1714 0
-1710 -1715 0
-1706 -1806 0
-1707 -1807 0
-1708 -1808 0
-1709 -1809 0
-1710 -1810 0
-1706 -1871 0
-1707 -1872 0
-1708 -1873 0
-1709 -1874 0
-1710 -1875 0
-1711 -1716 0
-1712 -1717 0
-1713 -1718 0
-1714 -1719 0
-1715 -1720 0
-1711 -1861 0
-1712 -1862 0
-1713 -1863 0
-1714 -1864 0
-1715 -1865 0
-1711 -1891 0
-1712 -1892 0
-1713 -1893 0
-1714 -1894 0
-1715 -1895 0
-1711 -1961 0
-1712 -1962 0
-1713 -1963 0
-1714 -1964 0
-1715 -1965 0
-1716 -1846 0
-1717 -1847 0
-1718 -1848 0
-1719 -1849 0
-1720 -1850 0
-1716 -1906 0
-1717 -1907 0
-1718 -1908 0
-1719 -1909 0
-1720 -1910 0
-1721 -1731 0
-1722 -1732 0
-1723 -1733 0
-1724 -1734 0
-1725 -1735 0
-1721 -1836 0
-1722 -1837 0
-1723 -1838 0
-1724 -1839 0
-1725 -1840 0
-1726 -1736 0
-1727 -1737 0
-1728 -1738 0
-1729 -1739 0
-1730 -1740 0
-1726 -1771 0
-1727 -1772 0
-1728 -1773 0
-1729 -1774 0
-1730 -1775 0
-1726 -1831 0
-1727 -1832 0
-1728 -1833 0
-1729 -1834 0
-1730 -1835 0
-1726 -1836 0
-1727 -1837 0
-1728 -1838 0
-1729 -1839 0
-1730 -1840 0
-1726 -1886 0
-1727 -1887 0
-1728 -1888 0
-1729 -1889 0
-1730 -1890 0
-1726 -1901 0
-1727 -1902 0
-1728 -1903 0
-1729 -1904 0
-1730 -1905 0
-1731 -1766 0
-1732 -1767 0
-1733 -1768 0
-1734 -1769 0
-1735 -1770 0
-1731 -1841 0
-1732 -1842 0
-1733 -1843 0
-1734 -1844 0
-1735 -1845 0
-1731 -1846 0
-1732 -1847 0
-1733 -1848 0
-1734 -1849 0
-1735 -1850 0
-1731 -1851 0
-1732 -1852 0
-1733 -1853 0
-1734 -1854 0
-1735 -1855 0
-1731 -1896 0
-1732 -1897 0
-1733 -1898 0
-1734 -1899 0
-1735 -1900 0
-1736 -1796 0
-1737 -1797 0
-1738 -1798 0
-1739 -1799 0
-1740 -1800 0
-1736 -1886 0
-1737 -1887 0
-1738 -1888 0
-1739 -1889 0
-1740 -1890 0
-1736 -1896 0
-1737 -1897 0
-1738 -1898 0
-1739 -1899 0
-1740 -1900 0
-1736 -1941 0
-1737 -1942 0
-1738 -1943 0
-1739 -1944 0
-1740 -1945 0
-1741 -1811 0
-1742 -1812 0
-1743 -1813 0
-1744 -1814 0
-1745 -1815 0
-1741 -1881 0
-1742 -1882 0
-1743 -1883 0
-1744 -1884 0
-1745 -1885 0
-1741 -1891 0
-1742 -1892 0
-1743 -1893 0
-1744 -1894 0
-1745 -1895 0
-1746 -1786 0
-1747 -1787 0
-1748 -1788 0
-1749 -1789 0
-1750 -1790 0
-1746 -1821 0
-1747 -1822 0
-1748 -1823 0
-1749 -1824 0
-1750 -1825 0
-1746 -1871 0
-1747 -1872 0
-1748 -1873 0
-1749 -1874 0
-1750 -1875 0
-1746 -1876 0
-1747 -1877 0
-1748 -1878 0
-1749 -1879 0
-1750 -1880 0
-1746 -1881 0
-1747 -1882 0
-1748 -1883 0
-1749 -1884 0
-1750 -1885 0
-1751 -1786 0
-1752 -1787 0
-1753 -1788 0
-1754 -1789 0
-1755 -1790 0
-1751 -1791 0
-1752 -1792 0
-1753 -1793 0
-1754 -1794 0
-1755 -1795 0
-1756 -1856 0
-1757 -1857 0
-1758 -1858 0
-1759 -1859 0
-1760 -1860 0
-1761 -1801 0
-1762 -1802 0
-1763 -1803 0
-1764 -1804 0
-1765 -1805 0
-1766 -1841 0
-1767 -1842 0
-1768 -1843 0
-1769 -1844 0
-1770 -1845 0
-1766 -1871 0
-1767 -1872 0
-1768 -1873 0
-1769 -1874 0
-1770 -1875 0
-1766 -1881 0
-1767 -1882 0
-1768 -1883 0
-1769 -1884 0
-1770 -1885 0
-1766 -1921 0
-1767 -1922 0
-1768 -1923 0
-1769 -1924 0
-1770 -1925 0
-1766 -1946 0
-1767 -1947 0
-1768 -1948 0
-1769 -1949 0
-1770 -1950 0
-1776 -1831 0
-1777 -1832 0
-1778 -1833 0
-1779 -1834 0
-1780 -1835 0
-1776 -1871 0
-1777 -1872 0
-1778 -1873 0
-1779 -1874 0
-1780 -1875 0
-1776 -1901 0
-1777 -1902 0
-1778 -1903 0
-1779 -1904 0
-1780 -1905 0
-1776 -1931 0
-1777 -1932 0
-1778 -1933 0
-1779 -1934 0
-1780 -1935 0
-1781 -1836 0
-1782 -1837 0
-1783 -1838 0
-1784 -1839 0
-1785 -1840 0
-1781 -1901 0
-1782 -1902 0
-1783 -1903 0
-1784 -1904 0
-1785 -1905 0
-1781 -1916 0
-1782 -1917 0
-1783 -1918 0
-1784 -1919 0
-1785 -1920 0
-1786 -1821 0
-1787 -1822 0
-1788 -1823 0
-1789 -1824 0
-1790 -1825 0
-1786 -1846 0
-1787 -1847 0
-1788 -1848 0
-1789 -1849 0
-1790 -1850 0
-1791 -1856 0
-1792 -1857 0
-1793 -1858 0
-1794 -1859 0
-1795 -1860 0
-1791 -1961 0
-1792 -1962 0
-1793 -1963 0
-1794 -1964 0
-1795 -1965 0
-1796 -1926 0
-1797 -1927 0
-1798 -1928 0
-1799 -1929 0
-1800 -1930 0
-1806 -1866 0
-1807 -1867 0
-1808 -1868 0
-1809 -1869 0
-1810 -1870 0
-1806 -1946 0
-1807 -1947 0
-1808 -1948 0
-1809 -1949 0
-1810 -1950 0
-1811 -1871 0
-1812 -1872 0
-1813 -1873 0
-1814 -1874 0
-1815 -1875 0
-1811 -1931 0
-1812 -1932 0
-1813 -1933 0
-1814 -1934 0
-1815 -1935 0
-1811 -1946 0
-1812 -1947 0
-1813 -1948 0
-1814 -1949 0
-1815 -1950 0
-1816 -1896 0
-1817 -1897 0
-1818 -1898 0
-1819 -1899 0
-1820 -1900 0
-1816 -1941 0
-1817 -1942 0
-1818 -1943 0
-1819 -1944 0
-1820 -1945 0
-1821 -1886 0
-1822 -1887 0
-1823 -1888 0
-1824 -1889 0
-1825 -1890 0
-1821 -1906 0
-1822 -1907 0
-1823 -1908 0
-1824 -1909 0
-1825 -1910 0
-1821 -1951 0
-1822 -1952 0
-1823 -1953 0
-1824 -1954 0
-1825 -1955 0
-1821 -1956 0
-1822 -1957 0
-1823 -1958 0
-1824 -1959 0
-1825 -1960 0
-1831 -1881 0
-1832 -1882 0
-1833 -1883 0
-1834 -1884 0
-1835 -1885 0
-1831 -1886 0
-1832 -1887 0
-1833 -1888 0
-1834 -1889 0
-1835 -1890 0
-1831 -1906 0
-1832 -1907 0
-1833 -1908 0
-1834 -1909 0
-1835 -1910 0
-1841 -1936 0
-1842 -1937 0
-1843 -1938 0
-1844 -1939 0
-1845 -1940 0
-1846 -1871 0
-1847 -1872 0
-1848 -1873 0
-1849 -1874 0
-1850 -1875 0
-1846 -1886 0
-1847 -1887 0
-1848 -1888 0
-1849 -1889 0
-1850 -1890 0
-1851 -1896 0
-1852 -1897 0
-1853 -1898 0
-1854 -1899 0
-1855 -1900 0
-1856 -1951 0
-1857 -1952 0
-1858 -1953 0
-1859 -1954 0
-1860 -1955 0
-1861 -1881 0
-1862 -1882 0
-1863 -1883 0
-1864 -1884 0
-1865 -1885 0
-1861 -1896 0
-1862 -1897 0
-1863 -1898 0
-1864 -1899 0
-1865 -1900 0
-1861 -1926 0
-1862 -1927 0
-1863 -1928 0
-1864 -1929 0
-1865 -1930 0
-1861 -1931 0
-1862 -1932 0
-1863 -1933 0
-1864 -1934 0
-1865 -1935 0
-1871 -1886 0
-1872 -1887 0
-1873 -1888 0
-1874 -1889 0
-1875 -1890 0
-1871 -1901 0
-1872 -1902 0
-1873 -1903 0
-1874 -1904 0
-1875 -1905 0
-1871 -1946 0
-1872 -1947 0
-1873 -1948 0
-1874 -1949 0
-1875 -1950 0
-1876 -1881 0
-1877 -1882 0
-1878 -1883 0
-1879 -1884 0
-1880 -1885 0
-1876 -1946 0
-1877 -1947 0
-1878 -1948 0
-1879 -1949 0
-1880 -1950 0
-1876 -1956 0
-1877 -1957 0
-1878 -1958 0
-1879 -1959 0
-1880 -1960 0
-1881 -1891 0
-1882 -1892 0
-1883 -1893 0
-1884 -1894 0
-1885 -1895 0
-1881 -1896 0
-1882 -1897 0
-1883 -1898 0
-1884 -1899 0
-1885 -1900 0
-1881 -1936 0
-1882 -1937 0
-1883 -1938 0
-1884 -1939 0
-1885 -1940 0
-1886 -1906 0
-1887 -1907 0
-1888 -1908 0
-1889 -1909 0
-1890 -1910 0
-1891 -1906 0
-1892 -1907 0
-1893 -1908 0
-1894 -1909 0
-1895 -1910 0
-1891 -1951 0
-1892 -1952 0
-1893 -1953 0
-1894 -1954 0
-1895 -1955 0
-1891 -1961 0
-1892 -1962 0
-1893 -1963 0
-1894 -1964 0
-1895 -1965 0
-1896 -1926 0
-1897 -1927 0
-1898 -1928 0
-1899 -1929 0
-1900 -1930 0
-1896 -1936 0
-1897 -1937 0
-1898 -1938 0
-1899 -1939 0
-1900 -1940 0
-1896 -1941 0
-1897 -1942 0
-1898 -1943 0
-1899 -1944 0
-1900 -1945 0
-1896 -1961 0
-1897 -1962 0
-1898 -1963 0
-1899 -1964 0
-1900 -1965 0
-1901 -1916 0
-1902 -1917 0
-1903 -1918 0
-1904 -1919 0
-1905 -1920 0
-1911 -1946 0
-1912 -1947 0
-1913 -1948 0
-1914 -1949 0
-1915 -1950 0
-1951 -1956 0
-1952 -1957 0
-1953 -1958 0
-1954 -1959 0
-1955 -1960 0
-1 1456 0
1 -1456 0
-2 1457 0
2 -1457 0
-3 1458 0
3 -1458 0
-4 1459 0
4 -1459 0
-5 1460 0
5 -1460 0
-1 1631 0
1 -1631 0
-2 1632 0
2 -1632 0
-3 1633 0
3 -1633 0
-4 1634 0
4 -1634 0
-5 1635 0
5 -1635 0
-6 1441 0
6 -1441 0
-7 1442 0
7 -1442 0
-8 1443 0
8 -1443 0
-9 1444 0
9 -1444 0
-10 1445 0
10 -1445 0
-11 16 0
11 -16 0
-12 17 0
12 -17 0
-13 18 0
13 -18 0
-14 19 0
14 -19 0
-15 20 0
15 -20 0
-21 26 0
21 -26 0
-22 27 0
22 -27 0
-23 28 0
23 -28 0
-24 29 0
24 -29 0
-25 30 0
25 -30 0
-31 1001 0
31 -1001 0
-32 1002 0
32 -1002 0
-33 1003 0
33 -1003 0
-34 1004 0
34 -1004 0
-35 1005 0
35 -1005 0
-31 1341 0
31 -1341 0
-32 1342 0
32 -1342 0
-33 1343 0
33 -1343 0
-34 1344 0
34 -1344 0
-35 1345 0
35 -1345 0
-31 1426 0
31 -1426 0
-32 1427 0
32 -1427 0
-33 1428 0
33 -1428 0
-34 1429 0
34 -1429 0
-35 1430 0
35 -1430 0
-46 1051 0
46 -1051 0
-47 1052 0
47 -1052 0
-48 1053 0
48 -1053 0
-49 1054 0
49 -1054 0
-50 1055 0
50 -1055 0
-51 61 0
51 -61 0
-52 62 0
52 -62 0
-53 63 0
53 -63 0
-54 64 0
54 -64 0
-55 65 0
55 -65 0
-66 1591 0
66 -1591 0
-67 1592 0
67 -1592 0
-68 1593 0
68 -1593 0
-69 1594 0
69 -1594 0
-70 1595 0
70 -1595 0
-101 111 0
101 -111 0
-102 112 0
102 -112 0
-103 113 0
103 -113 0
-104 114 0
104 -114 0
-105 115 0
105 -115 0
-101 986 0
101 -986 0
-102 987 0
102 -987 0
-103 988 0
103 -988 0
-104 989 0
104 -989 0
-105 990 0
105 -990 0
-136 541 0
136 -541 0
-137 542 0
137 -542 0
-138 543 0
138 -543 0
-139 544 0
139 -544 0
-140 545 0
140 -545 0
-136 1446 0
136 -1446 0
-137 1447 0
137 -1447 0
-138 1448 0
138 -1448 0
-139 1449 0
139 -1449 0
-140 1450 0
140 -1450 0
-801 1561 0
801 -1561 0
-802 1562 0
802 -1562 0
-803 1563 0
803 -1563 0
-804 1564 0
804 -1564 0
-805 1565 0
805 -1565 0
-1641 1686 0
1641 -1686 0
-1642 1687 0
1642 -1687 0
-1643 1688 0
1643 -1688 0
-1644 1689 0
1644 -1689 0
-1645 1690 0
1645 -1690 0
-1656 1711 0
1656 -1711 0
-1657 1712 0
1657 -1712 0
-1658 1713 0
1658 -1713 0
-1659 1714 0
1659 -1714 0
-1660 1715 0
1660 -1715 0
-1681 1911 0
1681 -1911 0
-1682 1912 0
1682 -1912 0
-1683 1913 0
1683 -1913 0
-1684 1914 0
1684 -1914 0
-1685 1915 0
1685 -1915 0
-1726 1826 0
1726 -1826 0
-1727 1827 0
1727 -1827 0
-1728 1828 0
1728 -1828 0
-1729 1829 0
1729 -1829 0
-1730 1830 0
1730 -1830 0
-1741 1841 0
1741 -1841 0
-1742 1842 0
1742 -1842 0
-1743 1843 0
1743 -1843 0
-1744 1844 0
1744 -1844 0
-1745 1845 0
1745 -1845 0
-721 1001 0
721 -1001 0
-722 1002 0
722 -1002 0
-723 1003 0
723 -1003 0
-724 1004 0
724 -1004 0
-725 1005 0
725 -1005 0
-1651 1936 0
1651 -1936 0
-1652 1937 0
1652 -1937 0
-1653 1938 0
1653 -1938 0
-1654 1939 0
1654 -1939 0
-1655 1940 0
1655 -1940 0
-61 231 0
61 -231 0
-62 232 0
62 -232 0
-63 233 0
63 -233 0
-64 234 0
64 -234 0
-65 235 0
65 -235 0
-456 1001 0
456 -1001 0
-457 1002 0
457 -1002 0
-458 1003 0
458 -1003 0
-459 1004 0
459 -1004 0
-460 1005 0
460 -1005 0
-651 816 0
651 -816 0
-652 817 0
652 -817 0
-653 818 0
653 -818 0
-654 819 0
654 -819 0
-655 820 0
655 -820 0
-1666 1746 0
1666 -1746 0
-1667 1747 0
1667 -1747 0
-1668 1748 0
1668 -1748 0
-1669 1749 0
1669 -1749 0
-1670 1750 0
1670 -1750 0
-1786 1941 0
1786 -1941 0
-1787 1942 0
1787 -1942 0
-1788 1943 0
1788 -1943 0
-1789 1944 0
1789 -1944 0
-1790 1945 0
1790 -1945 0
-101 1451 0
101 -1451 0
-102 1452 0
102 -1452 0
-103 1453 0
103 -1453 0
-104 1454 0
104 -1454 0
-105 1455 0
105 -1455 0
-1696 1866 0
1696 -1866 0
-1697 1867 0
1697 -1867 0
-1698 1868 0
1698 -1868 0
-1699 1869 0
1699 -1869 0
-1700 1870 0
1700 -1870 0
-161 1391 0
161 -1391 0
-162 1392 0
162 -1392 0
-163 1393 0
163 -1393 0
-164 1394 0
164 -1394 0
-165 1395 0
165 -1395 0
-1671 1931 0
1671 -1931 0
-1672 1932 0
1672 -1932 0
-1673 1933 0
1673 -1933 0
-1674 1934 0
1674 -1934 0
-1675 1935 0
1675 -1935 0
-351 1071 0
351 -1071 0
-352 1072 0
352 -1072 0
-353 1073 0
353 -1073 0
-354 1074 0
354 -1074 0
-355 1075 0
355 -1075 0
-516 846 0
516 -846 0
-517 847 0
517 -847 0
-518 848 0
518 -848 0
-519 849 0
519 -849 0
-520 850 0
520 -850 0
-561 931 0
561 -931 0
-562 932 0
562 -932 0
-563 933 0
563 -933 0
-564 934 0
564 -934 0
-565 935 0
565 -935 0
-241 1206 0
241 -1206 0
-242 1207 0
242 -1207 0
-243 1208 0
243 -1208 0
-244 1209 0
244 -1209 0
-245 1210 0
245 -1210 0
-516 836 0
516 -836 0
-517 837 0
517 -837 0
-518 838 0
518 -838 0
-519 839 0
519 -839 0
-520 840 0
520 -840 0
-651 1091 0
651 -1091 0
-652 1092 0
652 -1092 0
-653 1093 0
653 -1093 0
-654 1094 0
654 -1094 0
-655 1095 0
655 -1095 0
-326 1381 0
326 -1381 0
-327 1382 0
327 -1382 0
-328 1383 0
328 -1383 0
-329 1384 0
329 -1384 0
-330 1385 0
330 -1385 0
-476 1226 0
476 -1226 0
-477 1227 0
477 -1227 0
-478 1228 0
478 -1228 0
-479 1229 0
479 -1229 0
-480 1230 0
480 -1230 0
-1671 1801 0
1671 -1801 0
-1672 1802 0
1672 -1802 0
-1673 1803 0
1673 -1803 0
-1674 1804 0
1674 -1804 0
-1675 1805 0
1675 -1805 0
-41 66 0
41 -66 0
-42 67 0
42 -67 0
-43 68 0
43 -68 0
-44 69 0
44 -69 0
-45 70 0
45 -70 0
-411 1266 0
411 -1266 0
-412 1267 0
412 -1267 0
-413 1268 0
413 -1268 0
-414 1269 0
414 -1269 0
-415 1270 0
415 -1270 0
-506 836 0
506 -836 0
-507 837 0
507 -837 0
-508 838 0
508 -838 0
-509 839 0
509 -839 0
-510 840 0
510 -840 0
-186 1421 0
186 -1421 0
-187 1422 0
187 -1422 0
-188 1423 0
188 -1423 0
-189 1424 0
189 -1424 0
-190 1425 0
190 -1425 0
-1776 1816 0
1776 -1816 0
-1777 1817 0
1777 -1817 0
-1778 1818 0
1778 -1818 0
-1779 1819 0
1779 -1819 0
-1780 1820 0
1780 -1820 0
-601 1196 0
601 -1196 0
-602 1197 0
602 -1197 0
-603 1198 0
603 -1198 0
-604 1199 0
604 -1199 0
-605 1200 0
605 -1200 0
-526 1051 0
526 -1051 0
-527 1052 0
527 -1052 0
-528 1053 0
528 -1053 0
-529 1054 0
529 -1054 0
-530 1055 0
530 -1055 0
-1666 1731 0
1666 -1731 0
-1667 1732 0
1667 -1732 0
-1668 1733 0
1668 -1733 0
-1669 1734 0
1669 -1734 0
-1670 1735 0
1670 -1735 0
-236 1291 0
236 -1291 0
-237 1292 0
237 -1292 0
-238 1293 0
238 -1293 0
-239 1294 0
239 -1294 0
-240 1295 0
240 -1295 0
-346 1311 0
346 -1311 0
-347 1312 0
347 -1312 0
-348 1313 0
348 -1313 0
-349 1314 0
349 -1314 0
-350 1315 0
350 -1315 0
-501 891 0
501 -891 0
-502 892 0
502 -892 0
-503 893 0
503 -893 0
-504 894 0
504 -894 0
-505 895 0
505 -895 0
-246 1211 0
246 -1211 0
-247 1212 0
247 -1212 0
-248 1213 0
248 -1213 0
-249 1214 0
249 -1214 0
-250 1215 0
250 -1215 0
-466 896 0
466 -896 0
-467 897 0
467 -897 0
-468 898 0
468 -898 0
-469 899 0
469 -899 0
-470 900 0
470 -900 0
-396 1256 0
396 -1256 0
-397 1257 0
397 -1257 0
-398 1258 0
398 -1258 0
-399 1259 0
399 -1259 0
-400 1260 0
400 -1260 0
-811 821 0
811 -821 0
-812 822 0
812 -822 0
-813 823 0
813 -823 0
-814 824 0
814 -824 0
-815 825 0
815 -825 0
-76 1386 0
76 -1386 0
-77 1387 0
77 -1387 0
-78 1388 0
78 -1388 0
-79 1389 0
79 -1389 0
-80 1390 0
80 -1390 0
-461 1021 0
461 -1021 0
-462 1022 0
462 -1022 0
-463 1023 0
463 -1023 0
-464 1024 0
464 -1024 0
-465 1025 0
465 -1025 0
-526 1086 0
526 -1086 0
-527 1087 0
527 -1087 0
-528 1088 0
528 -1088 0
-529 1089 0
529 -1089 0
-530 1090 0
530 -1090 0
-561 1301 0
561 -1301 0
-562 1302 0
562 -1302 0
-563 1303 0
563 -1303 0
-564 1304 0
564 -1304 0
-565 1305 0
565 -1305 0
-1716 1751 0
1716 -1751 0
-1717 1752 0
1717 -1752 0
-1718 1753 0
1718 -1753 0
-1719 1754 0
1719 -1754 0
-1720 1755 0
1720 -1755 0
-226 1541 0
226 -1541 0
-227 1542 0
227 -1542 0
-228 1543 0
228 -1543 0
-229 1544 0
229 -1544 0
-230 1545 0
230 -1545 0
-531 1141 0
531 -1141 0
-532 1142 0
532 -1142 0
-533 1143 0
533 -1143 0
-534 1144 0
534 -1144 0
-535 1145 0
535 -1145 0
-481 871 0
481 -871 0
-482 872 0
482 -872 0
-483 873 0
483 -873 0
-484 874 0
484 -874 0
-485 875 0
485 -875 0
-276 1176 0
276 -1176 0
-277 1177 0
277 -1177 0
-278 1178 0
278 -1178 0
-279 1179 0
279 -1179 0
-280 1180 0
280 -1180 0
-1856 1881 0
1856 -1881 0
-1857 1882 0
1857 -1882 0
-1858 1883 0
1858 -1883 0
-1859 1884 0
1859 -1884 0
-1860 1885 0
1860 -1885 0
-1661 1891 0
1661 -1891 0
-1662 1892 0
1662 -1892 0
-1663 1893 0
1663 -1893 0
-1664 1894 0
1664 -1894 0
-1665 1895 0
1665 -1895 0
-1691 1926 0
1691 -1926 0
-1692 1927 0
1692 -1927 0
-1693 1928 0
1693 -1928 0
-1694 1929 0
1694 -1929 0
-1695 1930 0
1695 -1930 0
-1626 1676 0
1626 -1676 0
-1627 1677 0
1627 -1677 0
-1628 1678 0
1628 -1678 0
-1629 1679 0
1629 -1679 0
-1630 1680 0
1630 -1680 0
-1641 1841 0
1641 -1841 0
-1642 1842 0
1642 -1842 0
-1643 1843 0
1643 -1843 0
-1644 1844 0
1644 -1844 0
-1645 1845 0
1645 -1845 0
-1756 1851 0
1756 -1851 0
-1757 1852 0
1757 -1852 0
-1758 1853 0
1758 -1853 0
-1759 1854 0
1759 -1854 0
-1760 1855 0
1760 -1855 0
-1721 1961 0
1721 -1961 0
-1722 1962 0
1722 -1962 0
-1723 1963 0
1723 -1963 0
-1724 1964 0
1724 -1964 0
-1725 1965 0
1725 -1965 0
-296 1576 0
296 -1576 0
-297 1577 0
297 -1577 0
-298 1578 0
298 -1578 0
-299 1579 0
299 -1579 0
-300 1580 0
300 -1580 0
-241 1271 0
241 -1271 0
-242 1272 0
242 -1272 0
-243 1273 0
243 -1273 0
-244 1274 0
244 -1274 0
-245 1275 0
245 -1275 0
-146 1506 0
146 -1506 0
-147 1507 0
147 -1507 0
-148 1508 0
148 -1508 0
-149 1509 0
149 -1509 0
-150 1510 0
150 -1510 0
-1771 1956 0
1771 -1956 0
-1772 1957 0
1772 -1957 0
-1773 1958 0
1773 -1958 0
-1774 1959 0
1774 -1959 0
-1775 1960 0
1775 -1960 0
-56 236 0
56 -236 0
-57 237 0
57 -237 0
-58 238 0
58 -238 0
-59 239 0
59 -239 0
-60 240 0
60 -240 0
-86 1081 0
86 -1081 0
-87 1082 0
87 -1082 0
-88 1083 0
88 -1083 0
-89 1084 0
89 -1084 0
-90 1085 0
90 -1085 0
-16 1461 0
16 -1461 0
-17 1462 0
17 -1462 0
-18 1463 0
18 -1463 0
-19 1464 0
19 -1464 0
-20 1465 0
20 -1465 0
-1636 1721 0
1636 -1721 0
-1637 1722 0
1637 -1722 0
-1638 1723 0
1638 -1723 0
-1639 1724 0
1639 -1724 0
-1640 1725 0
1640 -1725 0
-1706 1761 0
1706 -1761 0
-1707 1762 0
1707 -1762 0
-1708 1763 0
1708 -1763 0
-1709 1764 0
1709 -1764 0
-1710 1765 0
1710 -1765 0
-196 1331 0
196 -1331 0
-197 1332 0
197 -1332 0
-198 1333 0
198 -1333 0
-199 1334 0
199 -1334 0
-200 1335 0
200 -1335 0
-321 1376 0
321 -1376 0
-322 1377 0
322 -1377 0
-323 1378 0
323 -1378 0
-324 1379 0
324 -1379 0
-325 1380 0
325 -1380 0
-1716 1796 0
1716 -1796 0
-1717 1797 0
1717 -1797 0
-1718 1798 0
1718 -1798 0
-1719 1799 0
1719 -1799 0
-1720 1800 0
1720 -1800 0
-1881 1916 0
1881 -1916 0
-1882 1917 0
1882 -1917 0
-1883 1918 0
1883 -1918 0
-1884 1919 0
1884 -1919 0
-1885 1920 0
1885 -1920 0
-36 111 0
36 -111 0
-37 112 0
37 -112 0
-38 113 0
38 -113 0
-39 114 0
39 -114 0
-40 115 0
40 -115 0
-1661 1921 0
1661 -1921 0
-1662 1922 0
1662 -1922 0
-1663 1923 0
1663 -1923 0
-1664 1924 0
1664 -1924 0
-1665 1925 0
1665 -1925 0
-1716 1836 0
1716 -1836 0
-1717 1837 0
1717 -1837 0
-1718 1838 0
1718 -1838 0
-1719 1839 0
1719 -1839 0
-1720 1840 0
1720 -1840 0
